Au O                                    
   1.0000000000000000     
     8.8034794257725189    0.0000000000000000    0.0000000000000000
     4.4017397128862594    7.6240368244126415    0.0000000000000000
     0.0000000000000000    0.0000000000000000   23.1880108514108443
   Au   O 
    36     1
Selective dynamics
Direct
  0.0000000000000000  0.0000000000000000  0.0000000000000000   F   F   F
  0.3333333333333357  0.0000000000000000  0.0000000000000000   F   F   F
  0.6666666666666643  0.0000000000000000  0.0000000000000000   F   F   F
  0.0000000000000000  0.3333333333333357  0.0000000000000000   F   F   F
  0.3333333333333357  0.3333333333333357  0.0000000000000000   F   F   F
  0.6666666666666643  0.3333333333333357  0.0000000000000000   F   F   F
  0.0000000000000000  0.6666666666666643  0.0000000000000000   F   F   F
  0.3333333333333357  0.6666666666666643  0.0000000000000000   F   F   F
  0.6666666666666643  0.6666666666666643  0.0000000000000000   F   F   F
  0.1111111111111143  0.1111111111111143  0.1033294158990401   F   F   F
  0.4444444444444429  0.1111111111111143  0.1033294158990401   F   F   F
  0.7777777777777786  0.1111111111111143  0.1033294158990401   F   F   F
  0.1111111111111143  0.4444444444444429  0.1033294158990401   F   F   F
  0.4444444444444429  0.4444444444444429  0.1033294158990401   F   F   F
  0.7777777777777786  0.4444444444444429  0.1033294158990401   F   F   F
  0.1111111111111143  0.7777777777777786  0.1033294158990401   F   F   F
  0.4444444444444429  0.7777777777777786  0.1033294158990401   F   F   F
  0.7777777777777786  0.7777777777777786  0.1033294158990401   F   F   F
  0.8904431601366767  0.2251083250449000  0.2068596481383125   T   T   T
  0.2202190898661343  0.2263536992849922  0.2094547690614448   T   T   T
  0.5512213105694244  0.2250231363198765  0.2068534385918639   T   T   T
  0.8899096393939203  0.5546065972117020  0.2068801029101905   T   T   T
  0.2225350575071943  0.5545262676314380  0.2068845031669042   T   T   T
  0.5541629276706175  0.5585908516647820  0.2040059225801443   T   T   T
  0.8882911835675742  0.8904259234629492  0.2043512577571889   T   T   T
  0.2216873095413021  0.8947562393069717  0.2067690649898424   T   T   T
  0.5505796630768103  0.8947524708803556  0.2067600322975949   T   T   T
  0.9956507982973761  0.0006619302564133  0.3085639627707195   T   T   T
  0.3400156705473520  0.9871908045673834  0.3161202805441974   T   T   T
  0.6706817240427299  0.0007871448043275  0.3086014720615537   T   T   T
  0.9759441136899341  0.3466305963671772  0.3175198671133330   T   T   T
  0.3440232418614144  0.3464771782501117  0.3176938774757900   T   T   T
  0.6623337992571123  0.3418874460198040  0.3077305938463013   T   T   T
  0.9970739676843081  0.6727924078786316  0.3083015396208637   T   T   T
  0.3330477860921732  0.6711036333143596  0.3084266409052745   T   T   T
  0.6626393007750480  0.6711165765686644  0.3083615169471088   T   T   T
  0.2188161301475944  0.2287235184287866  0.3643263366090537   T   T   T

  0.00000000E+00  0.00000000E+00  0.00000000E+00
  0.00000000E+00  0.00000000E+00  0.00000000E+00
  0.00000000E+00  0.00000000E+00  0.00000000E+00
  0.00000000E+00  0.00000000E+00  0.00000000E+00
  0.00000000E+00  0.00000000E+00  0.00000000E+00
  0.00000000E+00  0.00000000E+00  0.00000000E+00
  0.00000000E+00  0.00000000E+00  0.00000000E+00
  0.00000000E+00  0.00000000E+00  0.00000000E+00
  0.00000000E+00  0.00000000E+00  0.00000000E+00
  0.00000000E+00  0.00000000E+00  0.00000000E+00
  0.00000000E+00  0.00000000E+00  0.00000000E+00
  0.00000000E+00  0.00000000E+00  0.00000000E+00
  0.00000000E+00  0.00000000E+00  0.00000000E+00
  0.00000000E+00  0.00000000E+00  0.00000000E+00
  0.00000000E+00  0.00000000E+00  0.00000000E+00
  0.00000000E+00  0.00000000E+00  0.00000000E+00
  0.00000000E+00  0.00000000E+00  0.00000000E+00
  0.00000000E+00  0.00000000E+00  0.00000000E+00
  0.00000000E+00  0.00000000E+00  0.00000000E+00
  0.00000000E+00  0.00000000E+00  0.00000000E+00
  0.00000000E+00  0.00000000E+00  0.00000000E+00
  0.00000000E+00  0.00000000E+00  0.00000000E+00
  0.00000000E+00  0.00000000E+00  0.00000000E+00
  0.00000000E+00  0.00000000E+00  0.00000000E+00
  0.00000000E+00  0.00000000E+00  0.00000000E+00
  0.00000000E+00  0.00000000E+00  0.00000000E+00
  0.00000000E+00  0.00000000E+00  0.00000000E+00
  0.00000000E+00  0.00000000E+00  0.00000000E+00
  0.00000000E+00  0.00000000E+00  0.00000000E+00
  0.00000000E+00  0.00000000E+00  0.00000000E+00
  0.00000000E+00  0.00000000E+00  0.00000000E+00
  0.00000000E+00  0.00000000E+00  0.00000000E+00
  0.00000000E+00  0.00000000E+00  0.00000000E+00
  0.00000000E+00  0.00000000E+00  0.00000000E+00
  0.00000000E+00  0.00000000E+00  0.00000000E+00
  0.00000000E+00  0.00000000E+00  0.00000000E+00
  0.00000000E+00  0.00000000E+00  0.00000000E+00
