Au O 
 1.0000000000000000
     8.8034794257725189    0.0000000000000000    0.0000000000000000
     4.4017397128862594    7.6240368244126415    0.0000000000000000
     0.0000000000000000    0.0000000000000000   23.1880108514108443
 Au  O  
  36   1
Selective dynamics
Cartesian
  0.0000000000000000  0.0000000000000000  0.0000000000000000   F   F   F
  2.9344931419241940  0.0000000000000000  0.0000000000000000   F   F   F
  5.8689862838483249  0.0000000000000000  0.0000000000000000   F   F   F
  1.4672465709620970  2.5413456081375654  0.0000000000000000   F   F   F
  4.4017397128862905  2.5413456081375654  0.0000000000000000   F   F   F
  7.3362328548104214  2.5413456081375654  0.0000000000000000   F   F   F
  2.9344931419241624  5.0826912162750766  0.0000000000000000   F   F   F
  5.8689862838483569  5.0826912162750766  0.0000000000000000   F   F   F
  8.8034794257724869  5.0826912162750766  0.0000000000000000   F   F   F
  1.4672465709621285  0.8471152027125400  2.3960036171368859   F   F   F
  4.4017397128862603  0.8471152027125400  2.3960036171368859   F   F   F
  7.3362328548104534  0.8471152027125400  2.3960036171368859   F   F   F
  2.9344931419241944  3.3884608108500514  2.3960036171368859   F   F   F
  5.8689862838483258  3.3884608108500514  2.3960036171368859   F   F   F
  8.8034794257725189  3.3884608108500514  2.3960036171368859   F   F   F
  4.4017397128862905  5.9298064189876163  2.3960036171368859   F   F   F
  7.3362328548104223  5.9298064189876163  2.3960036171368859   F   F   F
 10.2707259967346154  5.9298064189876163  2.3960036171368859   F   F   F
  8.8298662941345167  1.7162341596241604  4.7966637657501865   T   T   T
  2.9350442941003312  1.7257289386908281  4.8568394578764531   T   T   T
  5.8431587421027036  1.7155846776475825  4.7965197787197358   T   T   T
 10.2755350851764788  4.2283411202041927  4.7971380712225358   T   T   T
  4.3999630943495642  4.2277286845261592  4.7972401044228672   T   T   T
  7.3373334673019714  4.2587172228723054  4.7304915465404109   T   T   T
 11.7394763073225512  6.7886400298931697  4.7384991823731646   T   T   T
  5.8901037404119654  6.8216545173493408  4.7945633227204887   T   T   T
  8.7854842204226298  6.8216257867260417  4.7943538725547361   T   T   T
  8.7681049627617220  0.0050465806500765  7.1549845170817221   T   T   T
  7.3386779287642705  7.5263790467432887  7.3302004956099012   T   T   T
  5.9077975653968089  0.0060012209743418  7.1558542829246869   T   T   T
 10.1174815873039687  2.6427244311714828  7.3626541241624386   T   T   T
  4.5537038868267876  2.6415547657974430  7.3666890783353587   T   T   T
  7.3357415232363836  2.6065624782593755  7.1356603494191608   T   T   T
 11.7391772207699265  5.1293940928519133  7.1488994462352116   T   T   T
  5.8860028468835841  5.1165188133857891  7.1518002961756606   T   T   T
  8.7876119381399853  5.1166174932332620  7.1502902011270262   T   T   T
  2.9331246941206119  1.7437965271103162  8.4480030467454199   T   T   T
