Pd H  S                                 
   1.0000000000000000     
     8.3580021536249909    0.0000000000000000    0.0000000000000000
     0.0000000000000000    8.3580021536249909    0.0000000000000000
     0.0000000000000000    0.0000000000000000   19.9100000000000001
   Pd   H    S 
    36     2     1
Selective dynamics
Direct
  0.1666666666666643  0.1666666666666643  0.0000000000000000   F   F   F
  0.5000000000000000  0.1666666666666643  0.0000000000000000   F   F   F
  0.8333333333333357  0.1666666666666643  0.0000000000000000   F   F   F
  0.1666666666666643  0.5000000000000000  0.0000000000000000   F   F   F
  0.5000000000000000  0.5000000000000000  0.0000000000000000   F   F   F
  0.8333333333333357  0.5000000000000000  0.0000000000000000   F   F   F
  0.1666666666666643  0.8333333333333357  0.0000000000000000   F   F   F
  0.5000000000000000  0.8333333333333357  0.0000000000000000   F   F   F
  0.8333333333333357  0.8333333333333357  0.0000000000000000   F   F   F
  0.0000000000000000  0.0000000000000000  0.0989452536413893   F   F   F
  0.3333333333333357  0.0000000000000000  0.0989452536413893   F   F   F
  0.6666666666666643  0.0000000000000000  0.0989452536413893   F   F   F
  0.0000000000000000  0.3333333333333357  0.0989452536413893   F   F   F
  0.3333333333333357  0.3333333333333357  0.0989452536413893   F   F   F
  0.6666666666666643  0.3333333333333357  0.0989452536413893   F   F   F
  0.0000000000000000  0.6666666666666643  0.0989452536413893   F   F   F
  0.3333333333333357  0.6666666666666643  0.0989452536413893   F   F   F
  0.6666666666666643  0.6666666666666643  0.0989452536413893   F   F   F
  0.1651837122728637  0.1627628528609861  0.1968765456261252   T   T   T
  0.5035831369517965  0.1628142224823037  0.1966011039040865   T   T   T
  0.8343200754948512  0.1658421083334645  0.1969344104796278   T   T   T
  0.1681768100718344  0.4976632344322596  0.1985858276274115   T   T   T
  0.4983027152017669  0.4974796824568202  0.1990645092396974   T   T   T
  0.8340880278053362  0.4977303909410580  0.1970746252345137   T   T   T
  0.1694684521978900  0.8262538713184924  0.1978324174975867   T   T   T
  0.4990364289475551  0.8265661007674936  0.1982519425316482   T   T   T
  0.8343605606535007  0.8322775696753624  0.1964175338294467   T   T   T
  0.0012044286573669  0.9941022711266854  0.2957784672800869   T   T   T
  0.3344828985951622  0.9876690759474158  0.2947809656729419   T   T   T
  0.6695105887190493  0.9973709491954423  0.2951103625178035   T   T   T
  0.9930344791927297  0.3296632000965545  0.2983651969169614   T   T   T
  0.3251505818220295  0.3179231635462259  0.2937419100586638   T   T   T
  0.6701242219179449  0.3296922825751167  0.3036933868398037   T   T   T
  0.0003804179795139  0.6638400502859696  0.2951199090180054   T   T   T
  0.3326454115484196  0.6536184338365416  0.3041420326451387   T   T   T
  0.6689924031255146  0.6645407667585417  0.2946364405368413   T   T   T
  0.7906468220339775  0.3525183246900667  0.3675966631086283   T   T   T
  0.4888287477086877  0.5014380930162119  0.4018749134421853   T   T   T
  0.3662706879039348  0.3938909370483898  0.3996875097427903   T   T   T

  0.00000000E+00  0.00000000E+00  0.00000000E+00
  0.00000000E+00  0.00000000E+00  0.00000000E+00
  0.00000000E+00  0.00000000E+00  0.00000000E+00
  0.00000000E+00  0.00000000E+00  0.00000000E+00
  0.00000000E+00  0.00000000E+00  0.00000000E+00
  0.00000000E+00  0.00000000E+00  0.00000000E+00
  0.00000000E+00  0.00000000E+00  0.00000000E+00
  0.00000000E+00  0.00000000E+00  0.00000000E+00
  0.00000000E+00  0.00000000E+00  0.00000000E+00
  0.00000000E+00  0.00000000E+00  0.00000000E+00
  0.00000000E+00  0.00000000E+00  0.00000000E+00
  0.00000000E+00  0.00000000E+00  0.00000000E+00
  0.00000000E+00  0.00000000E+00  0.00000000E+00
  0.00000000E+00  0.00000000E+00  0.00000000E+00
  0.00000000E+00  0.00000000E+00  0.00000000E+00
  0.00000000E+00  0.00000000E+00  0.00000000E+00
  0.00000000E+00  0.00000000E+00  0.00000000E+00
  0.00000000E+00  0.00000000E+00  0.00000000E+00
  0.00000000E+00  0.00000000E+00  0.00000000E+00
  0.00000000E+00  0.00000000E+00  0.00000000E+00
  0.00000000E+00  0.00000000E+00  0.00000000E+00
  0.00000000E+00  0.00000000E+00  0.00000000E+00
  0.00000000E+00  0.00000000E+00  0.00000000E+00
  0.00000000E+00  0.00000000E+00  0.00000000E+00
  0.00000000E+00  0.00000000E+00  0.00000000E+00
  0.00000000E+00  0.00000000E+00  0.00000000E+00
  0.00000000E+00  0.00000000E+00  0.00000000E+00
  0.00000000E+00  0.00000000E+00  0.00000000E+00
  0.00000000E+00  0.00000000E+00  0.00000000E+00
  0.00000000E+00  0.00000000E+00  0.00000000E+00
  0.00000000E+00  0.00000000E+00  0.00000000E+00
  0.00000000E+00  0.00000000E+00  0.00000000E+00
  0.00000000E+00  0.00000000E+00  0.00000000E+00
  0.00000000E+00  0.00000000E+00  0.00000000E+00
  0.00000000E+00  0.00000000E+00  0.00000000E+00
  0.00000000E+00  0.00000000E+00  0.00000000E+00
  0.00000000E+00  0.00000000E+00  0.00000000E+00
  0.00000000E+00  0.00000000E+00  0.00000000E+00
  0.00000000E+00  0.00000000E+00  0.00000000E+00
