Pd H  S 
 1.0000000000000000
     8.3580021536249909    0.0000000000000000    0.0000000000000000
     0.0000000000000000    8.3580021536249909    0.0000000000000000
     0.0000000000000000    0.0000000000000000   19.9100000000000001
 Pd  H   S  
  36   2   1
Selective dynamics
Cartesian
  1.3930003589374786  1.3930003589374786  0.0000000000000000   F   F   F
  4.1790010768124954  1.3930003589374786  0.0000000000000000   F   F   F
  6.9650017946875122  1.3930003589374786  0.0000000000000000   F   F   F
  1.3930003589374786  4.1790010768124954  0.0000000000000000   F   F   F
  4.1790010768124954  4.1790010768124954  0.0000000000000000   F   F   F
  6.9650017946875122  4.1790010768124954  0.0000000000000000   F   F   F
  1.3930003589374786  6.9650017946875122  0.0000000000000000   F   F   F
  4.1790010768124954  6.9650017946875122  0.0000000000000000   F   F   F
  6.9650017946875122  6.9650017946875122  0.0000000000000000   F   F   F
  0.0000000000000000  0.0000000000000000  1.9700000000000610   F   F   F
  2.7860007178750168  0.0000000000000000  1.9700000000000610   F   F   F
  5.5720014357499741  0.0000000000000000  1.9700000000000610   F   F   F
  0.0000000000000000  2.7860007178750168  1.9700000000000610   F   F   F
  2.7860007178750168  2.7860007178750168  1.9700000000000610   F   F   F
  5.5720014357499741  2.7860007178750168  1.9700000000000610   F   F   F
  0.0000000000000000  5.5720014357499741  1.9700000000000610   F   F   F
  2.7860007178750168  5.5720014357499741  1.9700000000000610   F   F   F
  5.5720014357499741  5.5720014357499741  1.9700000000000610   F   F   F
  1.3806058229203644  1.3603722747422526  3.9198120234160942   T   T   T
  4.2089489431723486  1.3608016221479005  3.9143279787303369   T   T   T
  6.9732489877985264  1.3861086986127775  3.9209641126493837   T   T   T
  1.4056221407701763  4.1594703851648198  3.9538438280617099   T   T   T
  4.1648151668135753  4.1579362573587559  3.9633743789624147   T   T   T
  6.9713095327098253  4.1600316794099479  3.9237557884191236   T   T   T
  1.4164176884414659  6.9058316359209391  3.9388434323769559   T   T   T
  4.1709475478809646  6.9084412503281101  3.9471961758051117   T   T   T
  6.9735873628417240  6.9561777197604284  3.9106730985443154   T   T   T
  8.3680687709371622  8.3087089230003350  5.8889492835465500   T   T   T
  2.7956087868091202  8.2549402638373071  5.8690890265483295   T   T   T
  5.5957709423885547  8.3360285413384965  5.8756473177295270   T   T   T
  8.2997843157167264  2.7553257363779062  5.9404510706167688   T   T   T
  2.7176092631209703  2.6572024856066219  5.8484014292679349   T   T   T
  5.6008996899864574  2.7555688077963381  6.0465353319805502   T   T   T
  8.3611816879170284  5.5483765699526550  5.8758373885484536   T   T   T
  2.7802510661151443  5.4629442776548318  6.0554678699647519   T   T   T
  5.5914399460818309  5.5542331597395176  5.8662115310885792   T   T   T
  6.6082278413167375  2.9463489169518753  7.3188495624927450   T   T   T
  4.0856317261030437  4.1910206613390981  8.0013295266339277   T   T   T
  3.0612911983107804  3.2921413001437978  7.9577783189789466   T   T   T
