Au O                                    
   1.0000000000000000     
     8.8034794257725189    0.0000000000000000    0.0000000000000000
     4.4017397128862594    7.6240368244126415    0.0000000000000000
     0.0000000000000000    0.0000000000000000   23.1880108514108443
   Au   O 
    36     1
Selective dynamics
Direct
  0.0000000000000000  0.0000000000000000  0.0000000000000000   F   F   F
  0.3333333333333357  0.0000000000000000  0.0000000000000000   F   F   F
  0.6666666666666643  0.0000000000000000  0.0000000000000000   F   F   F
  0.0000000000000000  0.3333333333333357  0.0000000000000000   F   F   F
  0.3333333333333357  0.3333333333333357  0.0000000000000000   F   F   F
  0.6666666666666643  0.3333333333333357  0.0000000000000000   F   F   F
  0.0000000000000000  0.6666666666666643  0.0000000000000000   F   F   F
  0.3333333333333357  0.6666666666666643  0.0000000000000000   F   F   F
  0.6666666666666643  0.6666666666666643  0.0000000000000000   F   F   F
  0.1111111111111143  0.1111111111111143  0.1033294158990401   F   F   F
  0.4444444444444429  0.1111111111111143  0.1033294158990401   F   F   F
  0.7777777777777786  0.1111111111111143  0.1033294158990401   F   F   F
  0.1111111111111143  0.4444444444444429  0.1033294158990401   F   F   F
  0.4444444444444429  0.4444444444444429  0.1033294158990401   F   F   F
  0.7777777777777786  0.4444444444444429  0.1033294158990401   F   F   F
  0.1111111111111143  0.7777777777777786  0.1033294158990401   F   F   F
  0.4444444444444429  0.7777777777777786  0.1033294158990401   F   F   F
  0.7777777777777786  0.7777777777777786  0.1033294158990401   F   F   F
  0.8906464998842765  0.2229902117515792  0.2078499500433679   T   T   T
  0.2204733774790455  0.2226969143096014  0.2080086873906595   T   T   T
  0.5560032514314983  0.2210904869648402  0.2051521402378356   T   T   T
  0.8904041268076526  0.5541241708565323  0.2064621115530585   T   T   T
  0.2194227469608236  0.5577091692978939  0.2051384502843234   T   T   T
  0.5551906514494434  0.5569166325401582  0.2048129887062515   T   T   T
  0.8910005376265246  0.8925100625306541  0.2061665664214232   T   T   T
  0.2211988110937355  0.8925565349767766  0.2078176756659573   T   T   T
  0.5520702015365657  0.8925256537118216  0.2064314125014945   T   T   T
  0.9996634177841983  0.0022978232096449  0.3142505217826184   T   T   T
  0.3598596548221735  0.9923483470893046  0.3132921058861271   T   T   T
  0.6750041890378000  0.0029101177764943  0.3098571192223005   T   T   T
  0.9888496722300673  0.3629235916615485  0.3134422315255563   T   T   T
  0.3369649594928532  0.3399023142153368  0.3076611505081530   T   T   T
  0.6638204145585505  0.3382060604383099  0.3082918328809043   T   T   T
  0.0003878367535961  0.6775424377532460  0.3099082532827211   T   T   T
  0.3354320714415309  0.6667914675187774  0.3082493333044312   T   T   T
  0.6676759559180496  0.6708263286612208  0.3078812449446957   T   T   T
  0.1287831761957605  0.1317074953840205  0.3629948487442078   T   T   T

  0.00000000E+00  0.00000000E+00  0.00000000E+00
  0.00000000E+00  0.00000000E+00  0.00000000E+00
  0.00000000E+00  0.00000000E+00  0.00000000E+00
  0.00000000E+00  0.00000000E+00  0.00000000E+00
  0.00000000E+00  0.00000000E+00  0.00000000E+00
  0.00000000E+00  0.00000000E+00  0.00000000E+00
  0.00000000E+00  0.00000000E+00  0.00000000E+00
  0.00000000E+00  0.00000000E+00  0.00000000E+00
  0.00000000E+00  0.00000000E+00  0.00000000E+00
  0.00000000E+00  0.00000000E+00  0.00000000E+00
  0.00000000E+00  0.00000000E+00  0.00000000E+00
  0.00000000E+00  0.00000000E+00  0.00000000E+00
  0.00000000E+00  0.00000000E+00  0.00000000E+00
  0.00000000E+00  0.00000000E+00  0.00000000E+00
  0.00000000E+00  0.00000000E+00  0.00000000E+00
  0.00000000E+00  0.00000000E+00  0.00000000E+00
  0.00000000E+00  0.00000000E+00  0.00000000E+00
  0.00000000E+00  0.00000000E+00  0.00000000E+00
  0.00000000E+00  0.00000000E+00  0.00000000E+00
  0.00000000E+00  0.00000000E+00  0.00000000E+00
  0.00000000E+00  0.00000000E+00  0.00000000E+00
  0.00000000E+00  0.00000000E+00  0.00000000E+00
  0.00000000E+00  0.00000000E+00  0.00000000E+00
  0.00000000E+00  0.00000000E+00  0.00000000E+00
  0.00000000E+00  0.00000000E+00  0.00000000E+00
  0.00000000E+00  0.00000000E+00  0.00000000E+00
  0.00000000E+00  0.00000000E+00  0.00000000E+00
  0.00000000E+00  0.00000000E+00  0.00000000E+00
  0.00000000E+00  0.00000000E+00  0.00000000E+00
  0.00000000E+00  0.00000000E+00  0.00000000E+00
  0.00000000E+00  0.00000000E+00  0.00000000E+00
  0.00000000E+00  0.00000000E+00  0.00000000E+00
  0.00000000E+00  0.00000000E+00  0.00000000E+00
  0.00000000E+00  0.00000000E+00  0.00000000E+00
  0.00000000E+00  0.00000000E+00  0.00000000E+00
  0.00000000E+00  0.00000000E+00  0.00000000E+00
  0.00000000E+00  0.00000000E+00  0.00000000E+00
