Au O 
 1.0000000000000000
     8.8034794257725189    0.0000000000000000    0.0000000000000000
     4.4017397128862594    7.6240368244126415    0.0000000000000000
     0.0000000000000000    0.0000000000000000   23.1880108514108443
 Au  O  
  36   1
Selective dynamics
Cartesian
  0.0000000000000000  0.0000000000000000  0.0000000000000000   F   F   F
  2.9344931419241940  0.0000000000000000  0.0000000000000000   F   F   F
  5.8689862838483249  0.0000000000000000  0.0000000000000000   F   F   F
  1.4672465709620970  2.5413456081375654  0.0000000000000000   F   F   F
  4.4017397128862905  2.5413456081375654  0.0000000000000000   F   F   F
  7.3362328548104214  2.5413456081375654  0.0000000000000000   F   F   F
  2.9344931419241624  5.0826912162750766  0.0000000000000000   F   F   F
  5.8689862838483569  5.0826912162750766  0.0000000000000000   F   F   F
  8.8034794257724869  5.0826912162750766  0.0000000000000000   F   F   F
  1.4672465709621285  0.8471152027125400  2.3960036171368859   F   F   F
  4.4017397128862603  0.8471152027125400  2.3960036171368859   F   F   F
  7.3362328548104534  0.8471152027125400  2.3960036171368859   F   F   F
  2.9344931419241944  3.3884608108500514  2.3960036171368859   F   F   F
  5.8689862838483258  3.3884608108500514  2.3960036171368859   F   F   F
  8.8034794257725189  3.3884608108500514  2.3960036171368859   F   F   F
  4.4017397128862905  5.9298064189876163  2.3960036171368859   F   F   F
  7.3362328548104223  5.9298064189876163  2.3960036171368859   F   F   F
 10.2707259967346154  5.9298064189876163  2.3960036171368859   F   F   F
  8.8223330080193438  1.7000855858776029  4.8196268970708900   T   T   T
  2.9211866942211362  1.6978494753794435  4.8233077004022773   T   T   T
  5.8679459612543097  1.6856020141472621  4.7570700540250810   T   T   T
 10.2777647797034888  4.2246630839073225  4.7874456830975642   T   T   T
  4.3865742371554255  4.2519952440397368  4.7567526112344263   T   T   T
  7.3390115356352821  4.2459529146140360  4.7492058046305026   T   T   T
 11.7725018877391285  6.8045295828925454  4.7805925793781521   T   T   T
  5.8761207284724852  6.8048838905330991  4.8188785184572245   T   T   T
  8.7888042755223328  6.8046484506319098  4.7867338331567852   T   T   T
 13.2123704637219497  7.6415555131789512  7.2868445091569409   T   T   T
  7.5360761957926066  7.5657003408538746  7.2646207509488514   T   T   T
 10.3569347843767421  7.6462236695039998  7.1849702429136268   T   T   T
 10.3028129308192664  2.7669428272757681  7.2681018659049608   T   T   T
  4.4626256030852343  2.5914277602808284  7.1340500965406006   T   T   T
  7.3326244093441293  2.5784954590212039  7.1486743662436822   T   T   T
 11.7892591940775677  5.1656084955330348  7.1861559400615276   T   T   T
  5.8880118224708431  5.0836427025672775  7.1476888856033609   T   T   T
  8.8306744323252975  5.1144046324986672  7.1391536487235223   T   T   T
  1.7134821549416581  1.0041427948589550  8.4171284916868743   T   T   T
