Mg O  Pd                                
   1.0000000000000000     
    12.7349999999999994    0.0000000000000000    0.0000000000000000
     0.0000000000000000   12.7349999999999994    0.0000000000000000
     0.0000000000000000    0.0000000000000000   25.6125000000000007
   Mg   O    Pd
   108   108     4
Selective dynamics
Direct
  0.0000000000000000  0.0000000000000000  0.0000000000000000   F   F   F
  0.1666666666666643  0.1666666666666643  0.0000000000000000   F   F   F
  0.0000000000000000  0.1666666666666643  0.0828696925329453   F   F   F
  0.1666666666666643  0.0000000000000000  0.0828696925329453   F   F   F
  0.0000000000000000  0.0000000000000000  0.1657393850658835   F   F   F
  0.1666666666666643  0.1666666666666643  0.1657393850658835   F   F   F
  0.0000102868130262  0.1671438314399012  0.2485211262518732   T   T   T
  0.1665732716644591  0.0004355651158886  0.2485579346410492   T   T   T
  0.0000393420571714  0.0009827773081126  0.3316127642496638   T   T   T
  0.1665225178490220  0.1674731191787156  0.3315969813598972   T   T   T
  0.0000715930393801  0.1674470881456324  0.4135674302557354   T   T   T
  0.1661331130486116  0.0014181753454108  0.4136304944117702   T   T   T
  0.0000000000000000  0.3333333333333357  0.0000000000000000   F   F   F
  0.1666666666666643  0.5000000000000000  0.0000000000000000   F   F   F
  0.0000000000000000  0.5000000000000000  0.0828696925329453   F   F   F
  0.1666666666666643  0.3333333333333357  0.0828696925329453   F   F   F
  0.0000000000000000  0.3333333333333357  0.1657393850658835   F   F   F
  0.1666666666666643  0.5000000000000000  0.1657393850658835   F   F   F
  0.0000284628083024  0.5003670436139561  0.2487769543119299   T   T   T
  0.1666012733293345  0.3337612133180667  0.2486640528113877   T   T   T
  0.0000515617763300  0.3340693967983461  0.3317555148952706   T   T   T
  0.1666650840223626  0.5006546260714280  0.3322555021085505   T   T   T
  0.0000388807820380  0.4999864875101214  0.4140406683401309   T   T   T
  0.1659334742371706  0.3331837261125432  0.4138228480540996   T   T   T
  0.0000000000000000  0.6666666666666643  0.0000000000000000   F   F   F
  0.1666666666666643  0.8333333333333357  0.0000000000000000   F   F   F
  0.0000000000000000  0.8333333333333357  0.0828696925329453   F   F   F
  0.1666666666666643  0.6666666666666643  0.0828696925329453   F   F   F
  0.0000000000000000  0.6666666666666643  0.1657393850658835   F   F   F
  0.1666666666666643  0.8333333333333357  0.1657393850658835   F   F   F
  0.0000337177762274  0.8337474202349374  0.2486546947115925   T   T   T
  0.1665085853482420  0.6670111770007485  0.2487443360649375   T   T   T
  0.0000456980928661  0.6673267149222561  0.3318954371361283   T   T   T
  0.1666542238376942  0.8342015942818108  0.3319506034738062   T   T   T
  0.0000395061927393  0.8354894405097272  0.4137531228450445   T   T   T
  0.1639552995738844  0.6682053892260604  0.4144641110861615   T   T   T
  0.3333333333333357  0.0000000000000000  0.0000000000000000   F   F   F
  0.5000000000000000  0.1666666666666643  0.0000000000000000   F   F   F
  0.3333333333333357  0.1666666666666643  0.0828696925329453   F   F   F
  0.5000000000000000  0.0000000000000000  0.0828696925329453   F   F   F
  0.3333333333333357  0.0000000000000000  0.1657393850658835   F   F   F
  0.5000000000000000  0.1666666666666643  0.1657393850658835   F   F   F
  0.3331669196473222  0.1671766023744441  0.2485660656988948   T   T   T
  0.5000472949206696  0.0005905924810162  0.2484939129230513   T   T   T
  0.3331707637175078  0.0010247756837545  0.3315707474244923   T   T   T
  0.5000686147738969  0.1670099503025838  0.3312898314273628   T   T   T
  0.3325371413406621  0.1669735388900999  0.4135811677099410   T   T   T
  0.5000998472638953  0.0016667612216976  0.4132357964614971   T   T   T
  0.3333333333333357  0.3333333333333357  0.0000000000000000   F   F   F
  0.5000000000000000  0.5000000000000000  0.0000000000000000   F   F   F
  0.3333333333333357  0.5000000000000000  0.0828696925329453   F   F   F
  0.5000000000000000  0.3333333333333357  0.0828696925329453   F   F   F
  0.3333333333333357  0.3333333333333357  0.1657393850658835   F   F   F
  0.5000000000000000  0.5000000000000000  0.1657393850658835   F   F   F
  0.3330577504246164  0.5002561979656105  0.2487965341180420   T   T   T
  0.5000240860320022  0.3334413076074779  0.2486252660744367   T   T   T
  0.3330121997511849  0.3340668106555831  0.3319866217423188   T   T   T
  0.5000492213163451  0.4996315310174335  0.3314590399218229   T   T   T
  0.3302455859957475  0.4980057873652881  0.4163740983376819   T   T   T
  0.5000937919944703  0.3289338959706841  0.4132260660322932   T   T   T
  0.3333333333333357  0.6666666666666643  0.0000000000000000   F   F   F
  0.5000000000000000  0.8333333333333357  0.0000000000000000   F   F   F
  0.3333333333333357  0.8333333333333357  0.0828696925329453   F   F   F
  0.5000000000000000  0.6666666666666643  0.0828696925329453   F   F   F
  0.3333333333333357  0.6666666666666643  0.1657393850658835   F   F   F
  0.5000000000000000  0.8333333333333357  0.1657393850658835   F   F   F
  0.3331250111715732  0.8337836927073082  0.2486654607890275   T   T   T
  0.5000475285455065  0.6668992919711970  0.2486937346752382   T   T   T
  0.3329280449008574  0.6672061807967500  0.3316220302771629   T   T   T
  0.5000465921704845  0.8348648389879262  0.3315485558394622   T   T   T
  0.3329283302081674  0.8378559715239986  0.4142048262518725   T   T   T
  0.5000093974079720  0.6724505761364725  0.4147073022002387   T   T   T
  0.6666666666666643  0.0000000000000000  0.0000000000000000   F   F   F
  0.8333333333333357  0.1666666666666643  0.0000000000000000   F   F   F
  0.6666666666666643  0.1666666666666643  0.0828696925329453   F   F   F
  0.8333333333333357  0.0000000000000000  0.0828696925329453   F   F   F
  0.6666666666666643  0.0000000000000000  0.1657393850658835   F   F   F
  0.8333333333333357  0.1666666666666643  0.1657393850658835   F   F   F
  0.6669091081222224  0.1671645948255251  0.2485680178527503   T   T   T
  0.8334657583530493  0.0004439766851723  0.2485614290001740   T   T   T
  0.6669483283918760  0.0010306257791416  0.3315728017748458   T   T   T
  0.8335688096042464  0.1674577963262103  0.3315993088572994   T   T   T
  0.6676076325341589  0.1669186558962842  0.4135872694250156   T   T   T
  0.8339799909938007  0.0013803501500606  0.4136408704878908   T   T   T
  0.6666666666666643  0.3333333333333357  0.0000000000000000   F   F   F
  0.8333333333333357  0.5000000000000000  0.0000000000000000   F   F   F
  0.6666666666666643  0.5000000000000000  0.0828696925329453   F   F   F
  0.8333333333333357  0.3333333333333357  0.0828696925329453   F   F   F
  0.6666666666666643  0.3333333333333357  0.1657393850658835   F   F   F
  0.8333333333333357  0.5000000000000000  0.1657393850658835   F   F   F
  0.6670012135888234  0.5002623421130162  0.2487997893779652   T   T   T
  0.8334710278018524  0.3337431938041711  0.2486687507680083   T   T   T
  0.6671128221697348  0.3340266482701344  0.3319898284860145   T   T   T
  0.8334651777663534  0.5006529080284613  0.3322580581837479   T   T   T
  0.6699119611975333  0.4979690848939279  0.4163738954303113   T   T   T
  0.8342317226868308  0.3331726442612284  0.4138088826506685   T   T   T
  0.6666666666666643  0.6666666666666643  0.0000000000000000   F   F   F
  0.8333333333333357  0.8333333333333357  0.0000000000000000   F   F   F
  0.6666666666666643  0.8333333333333357  0.0828696925329453   F   F   F
  0.8333333333333357  0.6666666666666643  0.0828696925329453   F   F   F
  0.6666666666666643  0.6666666666666643  0.1657393850658835   F   F   F
  0.8333333333333357  0.8333333333333357  0.1657393850658835   F   F   F
  0.6669421332052121  0.8337756320458234  0.2486763275773605   T   T   T
  0.8335309303110023  0.6670303950035474  0.2487563397409545   T   T   T
  0.6671556649466829  0.6671749248990757  0.3316227531896994   T   T   T
  0.8334877531574328  0.8342052441878021  0.3319420852133751   T   T   T
  0.6672321677228684  0.8378420514237631  0.4142101423862705   T   T   T
  0.8361695572722350  0.6681936072935304  0.4145064909926350   T   T   T
  0.0000000000000000  0.0000000000000000  0.0828696925329453   F   F   F
  0.1666666666666643  0.1666666666666643  0.0828696925329453   F   F   F
  0.0000000000000000  0.1666666666666643  0.0000000000000000   F   F   F
  0.1666666666666643  0.0000000000000000  0.0000000000000000   F   F   F
  0.0000442045134123  0.0003870241553244  0.2485969637933703   T   T   T
  0.1666361841869854  0.1670909424257941  0.2485596260696895   T   T   T
  0.0000000000000000  0.1666666666666643  0.1657393850658835   F   F   F
  0.1666666666666643  0.0000000000000000  0.1657393850658835   F   F   F
  0.0000767815730025  0.0012394861235382  0.4152443987057567   T   T   T
  0.1661908398392869  0.1671557441656152  0.4152367523717639   T   T   T
  0.0000524809820777  0.1674443660052665  0.3311709722817929   T   T   T
  0.1665646715909501  0.0007686424700660  0.3312207199767612   T   T   T
  0.0000000000000000  0.3333333333333357  0.0828696925329453   F   F   F
  0.1666666666666643  0.5000000000000000  0.0828696925329453   F   F   F
  0.0000000000000000  0.5000000000000000  0.0000000000000000   F   F   F
  0.1666666666666643  0.3333333333333357  0.0000000000000000   F   F   F
  0.0000410776600892  0.3339167218943933  0.2486105926771327   T   T   T
  0.1667988922612212  0.5005762081758658  0.2488262740390243   T   T   T
  0.0000000000000000  0.5000000000000000  0.1657393850658835   F   F   F
  0.1666666666666643  0.3333333333333357  0.1657393850658835   F   F   F
  0.0000927229040947  0.3336505827208078  0.4154823115174233   T   T   T
  0.1656679095438267  0.5006079841458263  0.4156462943895211   T   T   T
  0.0000585667952541  0.5008567243315188  0.3315977612366154   T   T   T
  0.1664916472125529  0.3340618704673745  0.3314019995016914   T   T   T
  0.0000000000000000  0.6666666666666643  0.0828696925329453   F   F   F
  0.1666666666666643  0.8333333333333357  0.0828696925329453   F   F   F
  0.0000000000000000  0.8333333333333357  0.0000000000000000   F   F   F
  0.1666666666666643  0.6666666666666643  0.0000000000000000   F   F   F
  0.0000157187750471  0.6670158493994045  0.2488316182283342   T   T   T
  0.1667090670358894  0.8335417094235021  0.2487029703753509   T   T   T
  0.0000000000000000  0.8333333333333357  0.1657393850658835   F   F   F
  0.1666666666666643  0.6666666666666643  0.1657393850658835   F   F   F
  0.0000797468204552  0.6680493810862345  0.4156629253427703   T   T   T
  0.1661578000768499  0.8351137122668121  0.4155007975558257   T   T   T
  0.0000734632335952  0.8340683200734915  0.3313997467215745   T   T   T
  0.1670368619120616  0.6674252450915390  0.3318989053417771   T   T   T
  0.3333333333333357  0.0000000000000000  0.0828696925329453   F   F   F
  0.5000000000000000  0.1666666666666643  0.0828696925329453   F   F   F
  0.3333333333333357  0.1666666666666643  0.0000000000000000   F   F   F
  0.5000000000000000  0.0000000000000000  0.0000000000000000   F   F   F
  0.3332725831179535  0.0001992492805026  0.2485781685502468   T   T   T
  0.5000245127832842  0.1671789950898891  0.2484025003859936   T   T   T
  0.3333333333333357  0.1666666666666643  0.1657393850658835   F   F   F
  0.5000000000000000  0.0000000000000000  0.1657393850658835   F   F   F
  0.3329279661607227  0.0018339098912005  0.4151975522629228   T   T   T
  0.5000617426718298  0.1663252998502018  0.4148974319682809   T   T   T
  0.3330986537113493  0.1673035730574444  0.3311840822071105   T   T   T
  0.5000601353213702  0.0012529089179763  0.3308315289610573   T   T   T
  0.3333333333333357  0.3333333333333357  0.0828696925329453   F   F   F
  0.5000000000000000  0.5000000000000000  0.0828696925329453   F   F   F
  0.3333333333333357  0.5000000000000000  0.0000000000000000   F   F   F
  0.5000000000000000  0.3333333333333357  0.0000000000000000   F   F   F
  0.3333151751549847  0.3340846625064883  0.2487378869613209   T   T   T
  0.5000339619544822  0.5004063288421042  0.2488868302283220   T   T   T
  0.3333333333333357  0.5000000000000000  0.1657393850658835   F   F   F
  0.5000000000000000  0.3333333333333357  0.1657393850658835   F   F   F
  0.3324623681816264  0.3323534107087369  0.4152760815679490   T   T   T
  0.5000681869221920  0.4940691063128047  0.4135534839287411   T   T   T
  0.3335179859475647  0.5014295810998824  0.3324213526278076   T   T   T
  0.5000446506830140  0.3333328282865505  0.3310778860906507   T   T   T
  0.3333333333333357  0.6666666666666643  0.0828696925329453   F   F   F
  0.5000000000000000  0.8333333333333357  0.0828696925329453   F   F   F
  0.3333333333333357  0.8333333333333357  0.0000000000000000   F   F   F
  0.5000000000000000  0.6666666666666643  0.0000000000000000   F   F   F
  0.3335408982407650  0.6669069182967612  0.2488994560238550   T   T   T
  0.5000314313533355  0.8333068523640098  0.2488318227778498   T   T   T
  0.3333333333333357  0.8333333333333357  0.1657393850658835   F   F   F
  0.5000000000000000  0.6666666666666643  0.1657393850658835   F   F   F
  0.3295945963478727  0.6697238044278939  0.4171777483802528   T   T   T
  0.5000482794089718  0.8375497199810572  0.4130877850422693   T   T   T
  0.3330384118267015  0.8335454597902963  0.3315386231650201   T   T   T
  0.5000862132843712  0.6665071511255981  0.3328935140264447   T   T   T
  0.6666666666666643  0.0000000000000000  0.0828696925329453   F   F   F
  0.8333333333333357  0.1666666666666643  0.0828696925329453   F   F   F
  0.6666666666666643  0.1666666666666643  0.0000000000000000   F   F   F
  0.8333333333333357  0.0000000000000000  0.0000000000000000   F   F   F
  0.6667665420784509  0.0001827542153840  0.2485833664146807   T   T   T
  0.8334213400358208  0.1671019417355241  0.2485566765068909   T   T   T
  0.6666666666666643  0.1666666666666643  0.1657393850658835   F   F   F
  0.8333333333333357  0.0000000000000000  0.1657393850658835   F   F   F
  0.6672050498342231  0.0018543792554590  0.4151822116154352   T   T   T
  0.8339659182915669  0.1671321279045261  0.4152638876910721   T   T   T
  0.6669989374062527  0.1672709085880333  0.3311935301014634   T   T   T
  0.8335568039411231  0.0007724948988108  0.3312323226783838   T   T   T
  0.6666666666666643  0.3333333333333357  0.0828696925329453   F   F   F
  0.8333333333333357  0.5000000000000000  0.0828696925329453   F   F   F
  0.6666666666666643  0.5000000000000000  0.0000000000000000   F   F   F
  0.8333333333333357  0.3333333333333357  0.0000000000000000   F   F   F
  0.6667308301587203  0.3340937385334098  0.2487390044706041   T   T   T
  0.8332743540518687  0.5005839453022357  0.2488275232524828   T   T   T
  0.6666666666666643  0.5000000000000000  0.1657393850658835   F   F   F
  0.8333333333333357  0.3333333333333357  0.1657393850658835   F   F   F
  0.6676653266013017  0.3323418004132588  0.4152579595931875   T   T   T
  0.8344795973083562  0.5005860385611333  0.4156287892282169   T   T   T
  0.6665696532398915  0.5014829212145495  0.3324353764985981   T   T   T
  0.8336557182280716  0.3340503428445410  0.3313975731671835   T   T   T
  0.6666666666666643  0.6666666666666643  0.0828696925329453   F   F   F
  0.8333333333333357  0.8333333333333357  0.0828696925329453   F   F   F
  0.6666666666666643  0.8333333333333357  0.0000000000000000   F   F   F
  0.8333333333333357  0.6666666666666643  0.0000000000000000   F   F   F
  0.6665118650359785  0.6668983612914531  0.2489062730285527   T   T   T
  0.8333793361585744  0.8335269392326503  0.2487066055120340   T   T   T
  0.6666666666666643  0.8333333333333357  0.1657393850658835   F   F   F
  0.8333333333333357  0.6666666666666643  0.1657393850658835   F   F   F
  0.6706304867556074  0.6696871379239443  0.4172151013923164   T   T   T
  0.8339928558209024  0.8351062072385176  0.4154635823621205   T   T   T
  0.6670765136793849  0.8334651488544047  0.3315317980006660   T   T   T
  0.8330127276788705  0.6674197459347405  0.3319277568485987   T   T   T
  0.6143998923985940  0.6641499471351539  0.5020898770855595   T   T   T
  0.3858677036965155  0.6639996509885864  0.5021483591175603   T   T   T
  0.5000401290950479  0.6097260025554740  0.5810496475561570   T   T   T
  0.4997956257040581  0.4955350851698900  0.4989145593214160   T   T   T

  0.00000000E+00  0.00000000E+00  0.00000000E+00
  0.00000000E+00  0.00000000E+00  0.00000000E+00
  0.00000000E+00  0.00000000E+00  0.00000000E+00
  0.00000000E+00  0.00000000E+00  0.00000000E+00
  0.00000000E+00  0.00000000E+00  0.00000000E+00
  0.00000000E+00  0.00000000E+00  0.00000000E+00
  0.00000000E+00  0.00000000E+00  0.00000000E+00
  0.00000000E+00  0.00000000E+00  0.00000000E+00
  0.00000000E+00  0.00000000E+00  0.00000000E+00
  0.00000000E+00  0.00000000E+00  0.00000000E+00
  0.00000000E+00  0.00000000E+00  0.00000000E+00
  0.00000000E+00  0.00000000E+00  0.00000000E+00
  0.00000000E+00  0.00000000E+00  0.00000000E+00
  0.00000000E+00  0.00000000E+00  0.00000000E+00
  0.00000000E+00  0.00000000E+00  0.00000000E+00
  0.00000000E+00  0.00000000E+00  0.00000000E+00
  0.00000000E+00  0.00000000E+00  0.00000000E+00
  0.00000000E+00  0.00000000E+00  0.00000000E+00
  0.00000000E+00  0.00000000E+00  0.00000000E+00
  0.00000000E+00  0.00000000E+00  0.00000000E+00
  0.00000000E+00  0.00000000E+00  0.00000000E+00
  0.00000000E+00  0.00000000E+00  0.00000000E+00
  0.00000000E+00  0.00000000E+00  0.00000000E+00
  0.00000000E+00  0.00000000E+00  0.00000000E+00
  0.00000000E+00  0.00000000E+00  0.00000000E+00
  0.00000000E+00  0.00000000E+00  0.00000000E+00
  0.00000000E+00  0.00000000E+00  0.00000000E+00
  0.00000000E+00  0.00000000E+00  0.00000000E+00
  0.00000000E+00  0.00000000E+00  0.00000000E+00
  0.00000000E+00  0.00000000E+00  0.00000000E+00
  0.00000000E+00  0.00000000E+00  0.00000000E+00
  0.00000000E+00  0.00000000E+00  0.00000000E+00
  0.00000000E+00  0.00000000E+00  0.00000000E+00
  0.00000000E+00  0.00000000E+00  0.00000000E+00
  0.00000000E+00  0.00000000E+00  0.00000000E+00
  0.00000000E+00  0.00000000E+00  0.00000000E+00
  0.00000000E+00  0.00000000E+00  0.00000000E+00
  0.00000000E+00  0.00000000E+00  0.00000000E+00
  0.00000000E+00  0.00000000E+00  0.00000000E+00
  0.00000000E+00  0.00000000E+00  0.00000000E+00
  0.00000000E+00  0.00000000E+00  0.00000000E+00
  0.00000000E+00  0.00000000E+00  0.00000000E+00
  0.00000000E+00  0.00000000E+00  0.00000000E+00
  0.00000000E+00  0.00000000E+00  0.00000000E+00
  0.00000000E+00  0.00000000E+00  0.00000000E+00
  0.00000000E+00  0.00000000E+00  0.00000000E+00
  0.00000000E+00  0.00000000E+00  0.00000000E+00
  0.00000000E+00  0.00000000E+00  0.00000000E+00
  0.00000000E+00  0.00000000E+00  0.00000000E+00
  0.00000000E+00  0.00000000E+00  0.00000000E+00
  0.00000000E+00  0.00000000E+00  0.00000000E+00
  0.00000000E+00  0.00000000E+00  0.00000000E+00
  0.00000000E+00  0.00000000E+00  0.00000000E+00
  0.00000000E+00  0.00000000E+00  0.00000000E+00
  0.00000000E+00  0.00000000E+00  0.00000000E+00
  0.00000000E+00  0.00000000E+00  0.00000000E+00
  0.00000000E+00  0.00000000E+00  0.00000000E+00
  0.00000000E+00  0.00000000E+00  0.00000000E+00
  0.00000000E+00  0.00000000E+00  0.00000000E+00
  0.00000000E+00  0.00000000E+00  0.00000000E+00
  0.00000000E+00  0.00000000E+00  0.00000000E+00
  0.00000000E+00  0.00000000E+00  0.00000000E+00
  0.00000000E+00  0.00000000E+00  0.00000000E+00
  0.00000000E+00  0.00000000E+00  0.00000000E+00
  0.00000000E+00  0.00000000E+00  0.00000000E+00
  0.00000000E+00  0.00000000E+00  0.00000000E+00
  0.00000000E+00  0.00000000E+00  0.00000000E+00
  0.00000000E+00  0.00000000E+00  0.00000000E+00
  0.00000000E+00  0.00000000E+00  0.00000000E+00
  0.00000000E+00  0.00000000E+00  0.00000000E+00
  0.00000000E+00  0.00000000E+00  0.00000000E+00
  0.00000000E+00  0.00000000E+00  0.00000000E+00
  0.00000000E+00  0.00000000E+00  0.00000000E+00
  0.00000000E+00  0.00000000E+00  0.00000000E+00
  0.00000000E+00  0.00000000E+00  0.00000000E+00
  0.00000000E+00  0.00000000E+00  0.00000000E+00
  0.00000000E+00  0.00000000E+00  0.00000000E+00
  0.00000000E+00  0.00000000E+00  0.00000000E+00
  0.00000000E+00  0.00000000E+00  0.00000000E+00
  0.00000000E+00  0.00000000E+00  0.00000000E+00
  0.00000000E+00  0.00000000E+00  0.00000000E+00
  0.00000000E+00  0.00000000E+00  0.00000000E+00
  0.00000000E+00  0.00000000E+00  0.00000000E+00
  0.00000000E+00  0.00000000E+00  0.00000000E+00
  0.00000000E+00  0.00000000E+00  0.00000000E+00
  0.00000000E+00  0.00000000E+00  0.00000000E+00
  0.00000000E+00  0.00000000E+00  0.00000000E+00
  0.00000000E+00  0.00000000E+00  0.00000000E+00
  0.00000000E+00  0.00000000E+00  0.00000000E+00
  0.00000000E+00  0.00000000E+00  0.00000000E+00
  0.00000000E+00  0.00000000E+00  0.00000000E+00
  0.00000000E+00  0.00000000E+00  0.00000000E+00
  0.00000000E+00  0.00000000E+00  0.00000000E+00
  0.00000000E+00  0.00000000E+00  0.00000000E+00
  0.00000000E+00  0.00000000E+00  0.00000000E+00
  0.00000000E+00  0.00000000E+00  0.00000000E+00
  0.00000000E+00  0.00000000E+00  0.00000000E+00
  0.00000000E+00  0.00000000E+00  0.00000000E+00
  0.00000000E+00  0.00000000E+00  0.00000000E+00
  0.00000000E+00  0.00000000E+00  0.00000000E+00
  0.00000000E+00  0.00000000E+00  0.00000000E+00
  0.00000000E+00  0.00000000E+00  0.00000000E+00
  0.00000000E+00  0.00000000E+00  0.00000000E+00
  0.00000000E+00  0.00000000E+00  0.00000000E+00
  0.00000000E+00  0.00000000E+00  0.00000000E+00
  0.00000000E+00  0.00000000E+00  0.00000000E+00
  0.00000000E+00  0.00000000E+00  0.00000000E+00
  0.00000000E+00  0.00000000E+00  0.00000000E+00
  0.00000000E+00  0.00000000E+00  0.00000000E+00
  0.00000000E+00  0.00000000E+00  0.00000000E+00
  0.00000000E+00  0.00000000E+00  0.00000000E+00
  0.00000000E+00  0.00000000E+00  0.00000000E+00
  0.00000000E+00  0.00000000E+00  0.00000000E+00
  0.00000000E+00  0.00000000E+00  0.00000000E+00
  0.00000000E+00  0.00000000E+00  0.00000000E+00
  0.00000000E+00  0.00000000E+00  0.00000000E+00
  0.00000000E+00  0.00000000E+00  0.00000000E+00
  0.00000000E+00  0.00000000E+00  0.00000000E+00
  0.00000000E+00  0.00000000E+00  0.00000000E+00
  0.00000000E+00  0.00000000E+00  0.00000000E+00
  0.00000000E+00  0.00000000E+00  0.00000000E+00
  0.00000000E+00  0.00000000E+00  0.00000000E+00
  0.00000000E+00  0.00000000E+00  0.00000000E+00
  0.00000000E+00  0.00000000E+00  0.00000000E+00
  0.00000000E+00  0.00000000E+00  0.00000000E+00
  0.00000000E+00  0.00000000E+00  0.00000000E+00
  0.00000000E+00  0.00000000E+00  0.00000000E+00
  0.00000000E+00  0.00000000E+00  0.00000000E+00
  0.00000000E+00  0.00000000E+00  0.00000000E+00
  0.00000000E+00  0.00000000E+00  0.00000000E+00
  0.00000000E+00  0.00000000E+00  0.00000000E+00
  0.00000000E+00  0.00000000E+00  0.00000000E+00
  0.00000000E+00  0.00000000E+00  0.00000000E+00
  0.00000000E+00  0.00000000E+00  0.00000000E+00
  0.00000000E+00  0.00000000E+00  0.00000000E+00
  0.00000000E+00  0.00000000E+00  0.00000000E+00
  0.00000000E+00  0.00000000E+00  0.00000000E+00
  0.00000000E+00  0.00000000E+00  0.00000000E+00
  0.00000000E+00  0.00000000E+00  0.00000000E+00
  0.00000000E+00  0.00000000E+00  0.00000000E+00
  0.00000000E+00  0.00000000E+00  0.00000000E+00
  0.00000000E+00  0.00000000E+00  0.00000000E+00
  0.00000000E+00  0.00000000E+00  0.00000000E+00
  0.00000000E+00  0.00000000E+00  0.00000000E+00
  0.00000000E+00  0.00000000E+00  0.00000000E+00
  0.00000000E+00  0.00000000E+00  0.00000000E+00
  0.00000000E+00  0.00000000E+00  0.00000000E+00
  0.00000000E+00  0.00000000E+00  0.00000000E+00
  0.00000000E+00  0.00000000E+00  0.00000000E+00
  0.00000000E+00  0.00000000E+00  0.00000000E+00
  0.00000000E+00  0.00000000E+00  0.00000000E+00
  0.00000000E+00  0.00000000E+00  0.00000000E+00
  0.00000000E+00  0.00000000E+00  0.00000000E+00
  0.00000000E+00  0.00000000E+00  0.00000000E+00
  0.00000000E+00  0.00000000E+00  0.00000000E+00
  0.00000000E+00  0.00000000E+00  0.00000000E+00
  0.00000000E+00  0.00000000E+00  0.00000000E+00
  0.00000000E+00  0.00000000E+00  0.00000000E+00
  0.00000000E+00  0.00000000E+00  0.00000000E+00
  0.00000000E+00  0.00000000E+00  0.00000000E+00
  0.00000000E+00  0.00000000E+00  0.00000000E+00
  0.00000000E+00  0.00000000E+00  0.00000000E+00
  0.00000000E+00  0.00000000E+00  0.00000000E+00
  0.00000000E+00  0.00000000E+00  0.00000000E+00
  0.00000000E+00  0.00000000E+00  0.00000000E+00
  0.00000000E+00  0.00000000E+00  0.00000000E+00
  0.00000000E+00  0.00000000E+00  0.00000000E+00
  0.00000000E+00  0.00000000E+00  0.00000000E+00
  0.00000000E+00  0.00000000E+00  0.00000000E+00
  0.00000000E+00  0.00000000E+00  0.00000000E+00
  0.00000000E+00  0.00000000E+00  0.00000000E+00
  0.00000000E+00  0.00000000E+00  0.00000000E+00
  0.00000000E+00  0.00000000E+00  0.00000000E+00
  0.00000000E+00  0.00000000E+00  0.00000000E+00
  0.00000000E+00  0.00000000E+00  0.00000000E+00
  0.00000000E+00  0.00000000E+00  0.00000000E+00
  0.00000000E+00  0.00000000E+00  0.00000000E+00
  0.00000000E+00  0.00000000E+00  0.00000000E+00
  0.00000000E+00  0.00000000E+00  0.00000000E+00
  0.00000000E+00  0.00000000E+00  0.00000000E+00
  0.00000000E+00  0.00000000E+00  0.00000000E+00
  0.00000000E+00  0.00000000E+00  0.00000000E+00
  0.00000000E+00  0.00000000E+00  0.00000000E+00
  0.00000000E+00  0.00000000E+00  0.00000000E+00
  0.00000000E+00  0.00000000E+00  0.00000000E+00
  0.00000000E+00  0.00000000E+00  0.00000000E+00
  0.00000000E+00  0.00000000E+00  0.00000000E+00
  0.00000000E+00  0.00000000E+00  0.00000000E+00
  0.00000000E+00  0.00000000E+00  0.00000000E+00
  0.00000000E+00  0.00000000E+00  0.00000000E+00
  0.00000000E+00  0.00000000E+00  0.00000000E+00
  0.00000000E+00  0.00000000E+00  0.00000000E+00
  0.00000000E+00  0.00000000E+00  0.00000000E+00
  0.00000000E+00  0.00000000E+00  0.00000000E+00
  0.00000000E+00  0.00000000E+00  0.00000000E+00
  0.00000000E+00  0.00000000E+00  0.00000000E+00
  0.00000000E+00  0.00000000E+00  0.00000000E+00
  0.00000000E+00  0.00000000E+00  0.00000000E+00
  0.00000000E+00  0.00000000E+00  0.00000000E+00
  0.00000000E+00  0.00000000E+00  0.00000000E+00
  0.00000000E+00  0.00000000E+00  0.00000000E+00
  0.00000000E+00  0.00000000E+00  0.00000000E+00
  0.00000000E+00  0.00000000E+00  0.00000000E+00
  0.00000000E+00  0.00000000E+00  0.00000000E+00
  0.00000000E+00  0.00000000E+00  0.00000000E+00
  0.00000000E+00  0.00000000E+00  0.00000000E+00
  0.00000000E+00  0.00000000E+00  0.00000000E+00
  0.00000000E+00  0.00000000E+00  0.00000000E+00
  0.00000000E+00  0.00000000E+00  0.00000000E+00
  0.00000000E+00  0.00000000E+00  0.00000000E+00
  0.00000000E+00  0.00000000E+00  0.00000000E+00
  0.00000000E+00  0.00000000E+00  0.00000000E+00
  0.00000000E+00  0.00000000E+00  0.00000000E+00
  0.00000000E+00  0.00000000E+00  0.00000000E+00
  0.00000000E+00  0.00000000E+00  0.00000000E+00
  0.00000000E+00  0.00000000E+00  0.00000000E+00
  0.00000000E+00  0.00000000E+00  0.00000000E+00
  0.00000000E+00  0.00000000E+00  0.00000000E+00
  0.00000000E+00  0.00000000E+00  0.00000000E+00
  0.00000000E+00  0.00000000E+00  0.00000000E+00
