Pd H  S 
 1.0000000000000000
     8.3580021536249909    0.0000000000000000    0.0000000000000000
     0.0000000000000000    8.3580021536249909    0.0000000000000000
     0.0000000000000000    0.0000000000000000   19.9100000000000001
 Pd  H   S  
  36   2   1
Selective dynamics
Cartesian
  1.3930003589374786  1.3930003589374786  0.0000000000000000   F   F   F
  4.1790010768124954  1.3930003589374786  0.0000000000000000   F   F   F
  6.9650017946875122  1.3930003589374786  0.0000000000000000   F   F   F
  1.3930003589374786  4.1790010768124954  0.0000000000000000   F   F   F
  4.1790010768124954  4.1790010768124954  0.0000000000000000   F   F   F
  6.9650017946875122  4.1790010768124954  0.0000000000000000   F   F   F
  1.3930003589374786  6.9650017946875122  0.0000000000000000   F   F   F
  4.1790010768124954  6.9650017946875122  0.0000000000000000   F   F   F
  6.9650017946875122  6.9650017946875122  0.0000000000000000   F   F   F
  0.0000000000000000  0.0000000000000000  1.9700000000000610   F   F   F
  2.7860007178750168  0.0000000000000000  1.9700000000000610   F   F   F
  5.5720014357499741  0.0000000000000000  1.9700000000000610   F   F   F
  0.0000000000000000  2.7860007178750168  1.9700000000000610   F   F   F
  2.7860007178750168  2.7860007178750168  1.9700000000000610   F   F   F
  5.5720014357499741  2.7860007178750168  1.9700000000000610   F   F   F
  0.0000000000000000  5.5720014357499741  1.9700000000000610   F   F   F
  2.7860007178750168  5.5720014357499741  1.9700000000000610   F   F   F
  5.5720014357499741  5.5720014357499741  1.9700000000000610   F   F   F
  1.4112784216194159  1.4062546931044222  3.9383492096447412   T   T   T
  4.1718611045094374  1.3940899871468084  3.9421875657893395   T   T   T
  6.9673572040166123  1.3867159911044762  3.9206924483580941   T   T   T
  1.4031999751937470  4.1571635658199453  3.9372993950032962   T   T   T
  4.1708235655973667  4.1627908585904692  3.9435139177725804   T   T   T
  6.9717992959222128  4.1828136352832441  3.9166066677542872   T   T   T
  1.3960256159868474  6.9630190063387545  3.9208786089513024   T   T   T
  4.1932699203172490  6.9631002394395534  3.9128771142661414   T   T   T
  6.9766648732818792  6.9607370240510944  3.9131932901896658   T   T   T
  8.3706577895442980  8.3517685454440009  5.8861611223251877   T   T   T
  2.7960593035769405  8.3322789413321416  5.8674254407841877   T   T   T
  5.6050978555493653  8.3455983891730643  5.8877741105907733   T   T   T
  8.3387523313865834  2.7826913672616573  5.8707427311713012   T   T   T
  2.7232727030397936  2.7700857214916779  6.0134825135766006   T   T   T
  5.5760982213492900  2.7856498339930176  5.8932236222036058   T   T   T
  8.3647898821675088  5.5805177558743502  5.8886478837992327   T   T   T
  2.8041175505510578  5.5686573411978140  5.8613479811901934   T   T   T
  5.6011302620741663  5.5759617072825645  5.8826059319528303   T   T   T
  4.7955729460657084  2.7939128173898733  7.7898563849712934   T   T   T
  3.4871021377287827  4.1292881253392606  8.4435421499999261   T   T   T
  3.4379333850433405  2.7934338507194765  8.2001530267039744   T   T   T
