Au H  S                                 
   1.0000000000000000     
     8.8034794257725189    0.0000000000000000    0.0000000000000000
     0.0000000000000000    8.8034794257725189    0.0000000000000000
     0.0000000000000000    0.0000000000000000   21.2250000000000014
   Au   H    S 
    36     1     1
Selective dynamics
Direct
  0.1666666666666643  0.1666666666666643  0.0000000000000000   F   F   F
  0.5000000000000000  0.1666666666666643  0.0000000000000000   F   F   F
  0.8333333333333357  0.1666666666666643  0.0000000000000000   F   F   F
  0.1666666666666643  0.5000000000000000  0.0000000000000000   F   F   F
  0.5000000000000000  0.5000000000000000  0.0000000000000000   F   F   F
  0.8333333333333357  0.5000000000000000  0.0000000000000000   F   F   F
  0.1666666666666643  0.8333333333333357  0.0000000000000000   F   F   F
  0.5000000000000000  0.8333333333333357  0.0000000000000000   F   F   F
  0.8333333333333357  0.8333333333333357  0.0000000000000000   F   F   F
  0.0000000000000000  0.0000000000000000  0.0977620730270914   F   F   F
  0.3333333333333357  0.0000000000000000  0.0977620730270914   F   F   F
  0.6666666666666643  0.0000000000000000  0.0977620730270914   F   F   F
  0.0000000000000000  0.3333333333333357  0.0977620730270914   F   F   F
  0.3333333333333357  0.3333333333333357  0.0977620730270914   F   F   F
  0.6666666666666643  0.3333333333333357  0.0977620730270914   F   F   F
  0.0000000000000000  0.6666666666666643  0.0977620730270914   F   F   F
  0.3333333333333357  0.6666666666666643  0.0977620730270914   F   F   F
  0.6666666666666643  0.6666666666666643  0.0977620730270914   F   F   F
  0.1659160105779080  0.1704756348002430  0.1960763420987327   T   T   T
  0.4977449748401236  0.1678400764825761  0.1942644984788995   T   T   T
  0.8348491341869574  0.1682698880243415  0.1945975027075157   T   T   T
  0.1660473459508177  0.5003898011636732  0.1964790167582698   T   T   T
  0.4962025378838175  0.5000684220395387  0.1957410896396567   T   T   T
  0.8369211343014119  0.4999132223729657  0.1961591025884524   T   T   T
  0.1662217102776151  0.8301793311123772  0.1960255251341327   T   T   T
  0.4988396912914658  0.8327398022698129  0.1941790689511164   T   T   T
  0.8344946581330768  0.8317732954908207  0.1945613856014438   T   T   T
  0.9962327920544598  0.0003382850629602  0.2904844828831757   T   T   T
  0.3356211689424421  0.0004562535797901  0.2904116372417940   T   T   T
  0.6659222812747573  0.9996784363373470  0.2918575732950720   T   T   T
  0.9850915621988314  0.3195145700833515  0.2960597736733230   T   T   T
  0.3451369962943495  0.3211586165984094  0.2947097264768803   T   T   T
  0.6650463462944479  0.3306340450860633  0.2901343843743008   T   T   T
  0.9859968708283782  0.6804667278890058  0.2957780178348915   T   T   T
  0.3454913219437917  0.6793943788639349  0.2942698190710085   T   T   T
  0.6656661824324280  0.6694085769585971  0.2901298682667067   T   T   T
  0.1523182224881008  0.4960734481935188  0.4254191494464732   T   T   T
  0.1597304344425732  0.4986157294442222  0.3609040281624922   T   T   T

  0.00000000E+00  0.00000000E+00  0.00000000E+00
  0.00000000E+00  0.00000000E+00  0.00000000E+00
  0.00000000E+00  0.00000000E+00  0.00000000E+00
  0.00000000E+00  0.00000000E+00  0.00000000E+00
  0.00000000E+00  0.00000000E+00  0.00000000E+00
  0.00000000E+00  0.00000000E+00  0.00000000E+00
  0.00000000E+00  0.00000000E+00  0.00000000E+00
  0.00000000E+00  0.00000000E+00  0.00000000E+00
  0.00000000E+00  0.00000000E+00  0.00000000E+00
  0.00000000E+00  0.00000000E+00  0.00000000E+00
  0.00000000E+00  0.00000000E+00  0.00000000E+00
  0.00000000E+00  0.00000000E+00  0.00000000E+00
  0.00000000E+00  0.00000000E+00  0.00000000E+00
  0.00000000E+00  0.00000000E+00  0.00000000E+00
  0.00000000E+00  0.00000000E+00  0.00000000E+00
  0.00000000E+00  0.00000000E+00  0.00000000E+00
  0.00000000E+00  0.00000000E+00  0.00000000E+00
  0.00000000E+00  0.00000000E+00  0.00000000E+00
  0.00000000E+00  0.00000000E+00  0.00000000E+00
  0.00000000E+00  0.00000000E+00  0.00000000E+00
  0.00000000E+00  0.00000000E+00  0.00000000E+00
  0.00000000E+00  0.00000000E+00  0.00000000E+00
  0.00000000E+00  0.00000000E+00  0.00000000E+00
  0.00000000E+00  0.00000000E+00  0.00000000E+00
  0.00000000E+00  0.00000000E+00  0.00000000E+00
  0.00000000E+00  0.00000000E+00  0.00000000E+00
  0.00000000E+00  0.00000000E+00  0.00000000E+00
  0.00000000E+00  0.00000000E+00  0.00000000E+00
  0.00000000E+00  0.00000000E+00  0.00000000E+00
  0.00000000E+00  0.00000000E+00  0.00000000E+00
  0.00000000E+00  0.00000000E+00  0.00000000E+00
  0.00000000E+00  0.00000000E+00  0.00000000E+00
  0.00000000E+00  0.00000000E+00  0.00000000E+00
  0.00000000E+00  0.00000000E+00  0.00000000E+00
  0.00000000E+00  0.00000000E+00  0.00000000E+00
  0.00000000E+00  0.00000000E+00  0.00000000E+00
  0.00000000E+00  0.00000000E+00  0.00000000E+00
  0.00000000E+00  0.00000000E+00  0.00000000E+00
