Au H  S                                 
   1.0000000000000000     
     8.8034794257725189    0.0000000000000000    0.0000000000000000
     0.0000000000000000    8.8034794257725189    0.0000000000000000
     0.0000000000000000    0.0000000000000000   21.2250000000000014
   Au   H    S 
    36     1     1
Selective dynamics
Direct
  0.1666666666666643  0.1666666666666643  0.0000000000000000   F   F   F
  0.5000000000000000  0.1666666666666643  0.0000000000000000   F   F   F
  0.8333333333333357  0.1666666666666643  0.0000000000000000   F   F   F
  0.1666666666666643  0.5000000000000000  0.0000000000000000   F   F   F
  0.5000000000000000  0.5000000000000000  0.0000000000000000   F   F   F
  0.8333333333333357  0.5000000000000000  0.0000000000000000   F   F   F
  0.1666666666666643  0.8333333333333357  0.0000000000000000   F   F   F
  0.5000000000000000  0.8333333333333357  0.0000000000000000   F   F   F
  0.8333333333333357  0.8333333333333357  0.0000000000000000   F   F   F
  0.0000000000000000  0.0000000000000000  0.0977620730270914   F   F   F
  0.3333333333333357  0.0000000000000000  0.0977620730270914   F   F   F
  0.6666666666666643  0.0000000000000000  0.0977620730270914   F   F   F
  0.0000000000000000  0.3333333333333357  0.0977620730270914   F   F   F
  0.3333333333333357  0.3333333333333357  0.0977620730270914   F   F   F
  0.6666666666666643  0.3333333333333357  0.0977620730270914   F   F   F
  0.0000000000000000  0.6666666666666643  0.0977620730270914   F   F   F
  0.3333333333333357  0.6666666666666643  0.0977620730270914   F   F   F
  0.6666666666666643  0.6666666666666643  0.0977620730270914   F   F   F
  0.1657240560855326  0.1658663286264323  0.1954527145508855   T   T   T
  0.4940269616662776  0.1653533073321764  0.1971067312801098   T   T   T
  0.8374181608836403  0.1655889913844754  0.1970453757163902   T   T   T
  0.1660772096328393  0.4999139875346930  0.1922237349445627   T   T   T
  0.4974987231462693  0.4993509863232952  0.1934452070056977   T   T   T
  0.8343389544581239  0.4993688152998495  0.1934585224996569   T   T   T
  0.1660853497683513  0.8335186736969152  0.1954611653039609   T   T   T
  0.4944664124983246  0.8331887549803613  0.1970429075464148   T   T   T
  0.8375385982064921  0.8331937478280510  0.1969791049804590   T   T   T
  0.9950036523461784  0.9988212647312592  0.2981621738447898   T   T   T
  0.3374551002414750  0.9986117925091024  0.2981864646526104   T   T   T
  0.6662332140153456  0.9993180132242817  0.2900304599519506   T   T   T
  0.9924694441884517  0.3299153623324309  0.2941961576741181   T   T   T
  0.3374132421552724  0.3301021844209008  0.2940605454903994   T   T   T
  0.6649902786941890  0.3354260818205166  0.2896746172407003   T   T   T
  0.9927613411741637  0.6677495868875916  0.2939823873786254   T   T   T
  0.3380108540398601  0.6675731784461564  0.2942209749158367   T   T   T
  0.6652771106482082  0.6633550995419708  0.2896871979989910   T   T   T
  0.1663961266725690  0.9964710220373850  0.3430018359968367   T   T   T
  0.1646264712719380  0.4988872011470265  0.3576517538577270   T   T   T

  0.00000000E+00  0.00000000E+00  0.00000000E+00
  0.00000000E+00  0.00000000E+00  0.00000000E+00
  0.00000000E+00  0.00000000E+00  0.00000000E+00
  0.00000000E+00  0.00000000E+00  0.00000000E+00
  0.00000000E+00  0.00000000E+00  0.00000000E+00
  0.00000000E+00  0.00000000E+00  0.00000000E+00
  0.00000000E+00  0.00000000E+00  0.00000000E+00
  0.00000000E+00  0.00000000E+00  0.00000000E+00
  0.00000000E+00  0.00000000E+00  0.00000000E+00
  0.00000000E+00  0.00000000E+00  0.00000000E+00
  0.00000000E+00  0.00000000E+00  0.00000000E+00
  0.00000000E+00  0.00000000E+00  0.00000000E+00
  0.00000000E+00  0.00000000E+00  0.00000000E+00
  0.00000000E+00  0.00000000E+00  0.00000000E+00
  0.00000000E+00  0.00000000E+00  0.00000000E+00
  0.00000000E+00  0.00000000E+00  0.00000000E+00
  0.00000000E+00  0.00000000E+00  0.00000000E+00
  0.00000000E+00  0.00000000E+00  0.00000000E+00
  0.00000000E+00  0.00000000E+00  0.00000000E+00
  0.00000000E+00  0.00000000E+00  0.00000000E+00
  0.00000000E+00  0.00000000E+00  0.00000000E+00
  0.00000000E+00  0.00000000E+00  0.00000000E+00
  0.00000000E+00  0.00000000E+00  0.00000000E+00
  0.00000000E+00  0.00000000E+00  0.00000000E+00
  0.00000000E+00  0.00000000E+00  0.00000000E+00
  0.00000000E+00  0.00000000E+00  0.00000000E+00
  0.00000000E+00  0.00000000E+00  0.00000000E+00
  0.00000000E+00  0.00000000E+00  0.00000000E+00
  0.00000000E+00  0.00000000E+00  0.00000000E+00
  0.00000000E+00  0.00000000E+00  0.00000000E+00
  0.00000000E+00  0.00000000E+00  0.00000000E+00
  0.00000000E+00  0.00000000E+00  0.00000000E+00
  0.00000000E+00  0.00000000E+00  0.00000000E+00
  0.00000000E+00  0.00000000E+00  0.00000000E+00
  0.00000000E+00  0.00000000E+00  0.00000000E+00
  0.00000000E+00  0.00000000E+00  0.00000000E+00
  0.00000000E+00  0.00000000E+00  0.00000000E+00
  0.00000000E+00  0.00000000E+00  0.00000000E+00
