Pd H  S 
 1.0000000000000000
     8.3580021536249909    0.0000000000000000    0.0000000000000000
     0.0000000000000000    8.3580021536249909    0.0000000000000000
     0.0000000000000000    0.0000000000000000   19.9100000000000001
 Pd  H   S  
  36   2   1
Selective dynamics
Cartesian
  1.3930003589374786  1.3930003589374786  0.0000000000000000   F   F   F
  4.1790010768124954  1.3930003589374786  0.0000000000000000   F   F   F
  6.9650017946875122  1.3930003589374786  0.0000000000000000   F   F   F
  1.3930003589374786  4.1790010768124954  0.0000000000000000   F   F   F
  4.1790010768124954  4.1790010768124954  0.0000000000000000   F   F   F
  6.9650017946875122  4.1790010768124954  0.0000000000000000   F   F   F
  1.3930003589374786  6.9650017946875122  0.0000000000000000   F   F   F
  4.1790010768124954  6.9650017946875122  0.0000000000000000   F   F   F
  6.9650017946875122  6.9650017946875122  0.0000000000000000   F   F   F
  0.0000000000000000  0.0000000000000000  1.9700000000000610   F   F   F
  2.7860007178750168  0.0000000000000000  1.9700000000000610   F   F   F
  5.5720014357499741  0.0000000000000000  1.9700000000000610   F   F   F
  0.0000000000000000  2.7860007178750168  1.9700000000000610   F   F   F
  2.7860007178750168  2.7860007178750168  1.9700000000000610   F   F   F
  5.5720014357499741  2.7860007178750168  1.9700000000000610   F   F   F
  0.0000000000000000  5.5720014357499741  1.9700000000000610   F   F   F
  2.7860007178750168  5.5720014357499741  1.9700000000000610   F   F   F
  5.5720014357499741  5.5720014357499741  1.9700000000000610   F   F   F
  1.3948635223369019  1.4024016067040637  3.9426926904936974   T   T   T
  4.1762853223633858  1.4106936479007210  3.9384798400437990   T   T   T
  6.9733605660754634  1.4041754156476942  3.9410880446792369   T   T   T
  1.3951382908686043  4.1639804899040476  3.9449934584201709   T   T   T
  4.1734707032588805  4.1653206103449101  3.9326206943935271   T   T   T
  6.9673095329424477  4.1612422203251516  3.9267691658605588   T   T   T
  1.3930509575358838  6.9653259764830908  3.9053026119109022   T   T   T
  4.1828490275326908  6.9688302518365708  3.9122015248903597   T   T   T
  6.9605778476282039  6.9680288444285567  3.9093328714628686   T   T   T
  0.0063793051365067  8.3261293577313893  5.8747248263174470   T   T   T
  2.7829569237381255  8.3314273741807803  5.8684412428559867   T   T   T
  5.5724301833946557  8.3476357039183000  5.8979014403884706   T   T   T
  8.2864621842017794  2.7967012215497355  5.9718179823048034   T   T   T
  2.8635464365631855  2.7897166519738645  5.9858879775054490   T   T   T
  5.5753706854293990  2.7931695776442615  5.9372915342009289   T   T   T
  8.3478704975310549  5.5911210152714599  5.8625690109671398   T   T   T
  2.7893203224363083  5.5915937938093618  5.8687140050928770   T   T   T
  5.5716523541967051  5.5775313159449267  5.8656647625866682   T   T   T
  5.5646892804511285  1.3773634967304893  6.8946392006157309   T   T   T
  1.4131187319456520  4.2254538671250987  7.9543404178094059   T   T   T
  1.3884132331120376  2.8730249613777259  7.7266462183073434   T   T   T
