Au O                                    
   1.0000000000000000     
     8.8034794257725189    0.0000000000000000    0.0000000000000000
     4.4017397128862594    7.6240368244126415    0.0000000000000000
     0.0000000000000000    0.0000000000000000   23.1880108514108443
   Au   O 
    36     1
Selective dynamics
Direct
  0.0000000000000000  0.0000000000000000  0.0000000000000000   F   F   F
  0.3333333333333357  0.0000000000000000  0.0000000000000000   F   F   F
  0.6666666666666643  0.0000000000000000  0.0000000000000000   F   F   F
  0.0000000000000000  0.3333333333333357  0.0000000000000000   F   F   F
  0.3333333333333357  0.3333333333333357  0.0000000000000000   F   F   F
  0.6666666666666643  0.3333333333333357  0.0000000000000000   F   F   F
  0.0000000000000000  0.6666666666666643  0.0000000000000000   F   F   F
  0.3333333333333357  0.6666666666666643  0.0000000000000000   F   F   F
  0.6666666666666643  0.6666666666666643  0.0000000000000000   F   F   F
  0.1111111111111143  0.1111111111111143  0.1033294158990401   F   F   F
  0.4444444444444429  0.1111111111111143  0.1033294158990401   F   F   F
  0.7777777777777786  0.1111111111111143  0.1033294158990401   F   F   F
  0.1111111111111143  0.4444444444444429  0.1033294158990401   F   F   F
  0.4444444444444429  0.4444444444444429  0.1033294158990401   F   F   F
  0.7777777777777786  0.4444444444444429  0.1033294158990401   F   F   F
  0.1111111111111143  0.7777777777777786  0.1033294158990401   F   F   F
  0.4444444444444429  0.7777777777777786  0.1033294158990401   F   F   F
  0.7777777777777786  0.7777777777777786  0.1033294158990401   F   F   F
  0.8909849348526393  0.2211742037881876  0.2081085268876919   T   T   T
  0.2211742943409263  0.2211740876502830  0.2081086105125252   T   T   T
  0.5565146207465617  0.2203010051207315  0.2052658995210663   T   T   T
  0.8904805482169635  0.5523720850199041  0.2067937879588442   T   T   T
  0.2203009207663058  0.5565176951409825  0.2052659264840031   T   T   T
  0.5565177237671364  0.5565146931913176  0.2052659065959261   T   T   T
  0.8904805647851077  0.8904805062759067  0.2067937400744313   T   T   T
  0.2211742882061429  0.8909849982132414  0.2081085309441306   T   T   T
  0.5523724704030144  0.8904804768179133  0.2067937543005769   T   T   T
  0.9896562438771213  0.9896563730028802  0.3137548643085637   T   T   T
  0.3540216675383547  0.9896555067271180  0.3137551057116426   T   T   T
  0.6672701074873686  0.9987936872824292  0.3100235599409089   T   T   T
  0.9896553704807332  0.3540217243338617  0.3137551021593694   T   T   T
  0.3353381567622691  0.3353380908586345  0.3083571410503652   T   T   T
  0.6626565321998115  0.3353382493017136  0.3083571396966533   T   T   T
  0.9987938842220103  0.6672699182212014  0.3100235801432376   T   T   T
  0.3353378699693366  0.6626569418180424  0.3083571986521889   T   T   T
  0.6672696605150392  0.6672698662495904  0.3100234978984702   T   T   T
  0.1111113572917759  0.1111114202313033  0.3603767800780346   T   T   T

  0.00000000E+00  0.00000000E+00  0.00000000E+00
  0.00000000E+00  0.00000000E+00  0.00000000E+00
  0.00000000E+00  0.00000000E+00  0.00000000E+00
  0.00000000E+00  0.00000000E+00  0.00000000E+00
  0.00000000E+00  0.00000000E+00  0.00000000E+00
  0.00000000E+00  0.00000000E+00  0.00000000E+00
  0.00000000E+00  0.00000000E+00  0.00000000E+00
  0.00000000E+00  0.00000000E+00  0.00000000E+00
  0.00000000E+00  0.00000000E+00  0.00000000E+00
  0.00000000E+00  0.00000000E+00  0.00000000E+00
  0.00000000E+00  0.00000000E+00  0.00000000E+00
  0.00000000E+00  0.00000000E+00  0.00000000E+00
  0.00000000E+00  0.00000000E+00  0.00000000E+00
  0.00000000E+00  0.00000000E+00  0.00000000E+00
  0.00000000E+00  0.00000000E+00  0.00000000E+00
  0.00000000E+00  0.00000000E+00  0.00000000E+00
  0.00000000E+00  0.00000000E+00  0.00000000E+00
  0.00000000E+00  0.00000000E+00  0.00000000E+00
  0.00000000E+00  0.00000000E+00  0.00000000E+00
  0.00000000E+00  0.00000000E+00  0.00000000E+00
  0.00000000E+00  0.00000000E+00  0.00000000E+00
  0.00000000E+00  0.00000000E+00  0.00000000E+00
  0.00000000E+00  0.00000000E+00  0.00000000E+00
  0.00000000E+00  0.00000000E+00  0.00000000E+00
  0.00000000E+00  0.00000000E+00  0.00000000E+00
  0.00000000E+00  0.00000000E+00  0.00000000E+00
  0.00000000E+00  0.00000000E+00  0.00000000E+00
  0.00000000E+00  0.00000000E+00  0.00000000E+00
  0.00000000E+00  0.00000000E+00  0.00000000E+00
  0.00000000E+00  0.00000000E+00  0.00000000E+00
  0.00000000E+00  0.00000000E+00  0.00000000E+00
  0.00000000E+00  0.00000000E+00  0.00000000E+00
  0.00000000E+00  0.00000000E+00  0.00000000E+00
  0.00000000E+00  0.00000000E+00  0.00000000E+00
  0.00000000E+00  0.00000000E+00  0.00000000E+00
  0.00000000E+00  0.00000000E+00  0.00000000E+00
  0.00000000E+00  0.00000000E+00  0.00000000E+00
