Au O 
 1.0000000000000000
     8.8034794257725189    0.0000000000000000    0.0000000000000000
     4.4017397128862594    7.6240368244126415    0.0000000000000000
     0.0000000000000000    0.0000000000000000   23.1880108514108443
 Au  O  
  36   1
Selective dynamics
Cartesian
  0.0000000000000000  0.0000000000000000  0.0000000000000000   F   F   F
  2.9344931419241940  0.0000000000000000  0.0000000000000000   F   F   F
  5.8689862838483249  0.0000000000000000  0.0000000000000000   F   F   F
  1.4672465709620970  2.5413456081375654  0.0000000000000000   F   F   F
  4.4017397128862905  2.5413456081375654  0.0000000000000000   F   F   F
  7.3362328548104214  2.5413456081375654  0.0000000000000000   F   F   F
  2.9344931419241624  5.0826912162750766  0.0000000000000000   F   F   F
  5.8689862838483569  5.0826912162750766  0.0000000000000000   F   F   F
  8.8034794257724869  5.0826912162750766  0.0000000000000000   F   F   F
  1.4672465709621285  0.8471152027125400  2.3960036171368859   F   F   F
  4.4017397128862603  0.8471152027125400  2.3960036171368859   F   F   F
  7.3362328548104534  0.8471152027125400  2.3960036171368859   F   F   F
  2.9344931419241944  3.3884608108500514  2.3960036171368859   F   F   F
  5.8689862838483258  3.3884608108500514  2.3960036171368859   F   F   F
  8.8034794257725189  3.3884608108500514  2.3960036171368859   F   F   F
  4.4017397128862905  5.9298064189876163  2.3960036171368859   F   F   F
  7.3362328548104223  5.9298064189876163  2.3960036171368859   F   F   F
 10.2707259967346154  5.9298064189876163  2.3960036171368859   F   F   F
  8.8173188189289569  1.6862402742913112  4.8256227797428881   T   T   T
  2.9206541148117275  1.6862393888516169  4.8256247188363854   T   T   T
  5.8689726969126612  1.6795829754956006  4.7597079055191234   T   T   T
 10.2707253282005713  4.2113051169693465  4.7951365991939863   T   T   T
  4.3890606630708655  4.2429114011920825  4.7597085307358995   T   T   T
  7.3489251570866871  4.2428885142173032  4.7597080695709799   T   T   T
 11.7589907391616624  6.7890561712690989  4.7951354888497626   T   T   T
  5.8689873459538120  6.7929024363770001  4.8256228738036651   T   T   T
  8.7824629569153547  6.7890559466803113  4.7951358187256981   T   T   T
 13.0686281407173066  7.5451766312886210  7.2753511982698358   T   T   T
  7.4728284124889219  7.5451700267703075  7.2753567959271894   T   T   T
 10.2707285009892022  7.6148398518321176  7.1888296721028313   T   T   T
 10.2707221758572480  2.6990746629634321  7.2753567135569854   T   T   T
  4.4282135555090143  2.5566299533344803  7.1501887327859626   T   T   T
  7.3097548367759044  2.5566311613103081  7.1501887013959831   T   T   T
 11.7300099085844778  5.0872904283412321  7.1888301405546473   T   T   T
  5.8689834157776968  5.0521209263734175  7.1501900684576585   T   T   T
  8.8114429972695056  5.0872900321077630  7.1888282334620861   T   T   T
  1.4672500988751185  0.8471175594562518  8.3564206870460005   T   T   T
