Au O 
 1.0000000000000000
     8.8034794257725189    0.0000000000000000    0.0000000000000000
     4.4017397128862594    7.6240368244126415    0.0000000000000000
     0.0000000000000000    0.0000000000000000   23.1880108514108443
 Au  O  
  36   1
Selective dynamics
Cartesian
  0.0000000000000000  0.0000000000000000  0.0000000000000000   F   F   F
  2.9344931419241940  0.0000000000000000  0.0000000000000000   F   F   F
  5.8689862838483249  0.0000000000000000  0.0000000000000000   F   F   F
  1.4672465709620970  2.5413456081375654  0.0000000000000000   F   F   F
  4.4017397128862905  2.5413456081375654  0.0000000000000000   F   F   F
  7.3362328548104214  2.5413456081375654  0.0000000000000000   F   F   F
  2.9344931419241624  5.0826912162750766  0.0000000000000000   F   F   F
  5.8689862838483569  5.0826912162750766  0.0000000000000000   F   F   F
  8.8034794257724869  5.0826912162750766  0.0000000000000000   F   F   F
  1.4672465709621285  0.8471152027125400  2.3960036171368859   F   F   F
  4.4017397128862603  0.8471152027125400  2.3960036171368859   F   F   F
  7.3362328548104534  0.8471152027125400  2.3960036171368859   F   F   F
  2.9344931419241944  3.3884608108500514  2.3960036171368859   F   F   F
  5.8689862838483258  3.3884608108500514  2.3960036171368859   F   F   F
  8.8034794257725189  3.3884608108500514  2.3960036171368859   F   F   F
  4.4017397128862905  5.9298064189876163  2.3960036171368859   F   F   F
  7.3362328548104223  5.9298064189876163  2.3960036171368859   F   F   F
 10.2707259967346154  5.9298064189876163  2.3960036171368859   F   F   F
  8.8170595509512548  1.7010411276023334  4.8091100373589963   T   T   T
  2.9174077083957823  1.6961533893433176  4.8287227010882967   T   T   T
  5.8591785055736478  1.6859967010113199  4.7629544898913254   T   T   T
 10.2726829141089446  4.2175240159397100  4.7919380803542468   T   T   T
  4.3819190928302456  4.2450517969330726  4.7623585449651502   T   T   T
  7.3291962051372694  4.2402393111060839  4.7465339905355357   T   T   T
 11.7516325431783279  6.7932407287987893  4.7625186448356187   T   T   T
  5.8737007707561721  6.8005420554860763  4.8084989674061100   T   T   T
  8.7796530308039653  6.8039984616274065  4.7911282388984855   T   T   T
 13.2184999797193345  7.6459898109229352  7.2122085481536393   T   T   T
  7.5070482908237723  7.5431174832610450  7.2779430650218142   T   T   T
 10.3464490112890015  7.6437796188851692  7.1855674781782488   T   T   T
 10.2676638738236932  2.7544581906224579  7.2831900217857148   T   T   T
  4.4549425302946171  2.5881684968287977  7.1460220781066557   T   T   T
  7.3244178466176315  2.5659352850020993  7.1579276503236375   T   T   T
 11.7810474709285167  5.1596191962925939  7.1864462538507423   T   T   T
  5.8725093510527264  5.0840668228060517  7.1561631425590022   T   T   T
  8.8120611003914266  5.1043332992537689  7.1252292908772139   T   T   T
  1.9667264381767253  1.1509133613513798  8.5080256254772397   T   T   T
