Pd H  S                                 
   1.0000000000000000     
     8.3580021536249909    0.0000000000000000    0.0000000000000000
     0.0000000000000000    8.3580021536249909    0.0000000000000000
     0.0000000000000000    0.0000000000000000   19.9100000000000001
   Pd   H    S 
    36     2     1
Selective dynamics
Direct
  0.1666666666666643  0.1666666666666643  0.0000000000000000   F   F   F
  0.5000000000000000  0.1666666666666643  0.0000000000000000   F   F   F
  0.8333333333333357  0.1666666666666643  0.0000000000000000   F   F   F
  0.1666666666666643  0.5000000000000000  0.0000000000000000   F   F   F
  0.5000000000000000  0.5000000000000000  0.0000000000000000   F   F   F
  0.8333333333333357  0.5000000000000000  0.0000000000000000   F   F   F
  0.1666666666666643  0.8333333333333357  0.0000000000000000   F   F   F
  0.5000000000000000  0.8333333333333357  0.0000000000000000   F   F   F
  0.8333333333333357  0.8333333333333357  0.0000000000000000   F   F   F
  0.0000000000000000  0.0000000000000000  0.0989452536413893   F   F   F
  0.3333333333333357  0.0000000000000000  0.0989452536413893   F   F   F
  0.6666666666666643  0.0000000000000000  0.0989452536413893   F   F   F
  0.0000000000000000  0.3333333333333357  0.0989452536413893   F   F   F
  0.3333333333333357  0.3333333333333357  0.0989452536413893   F   F   F
  0.6666666666666643  0.3333333333333357  0.0989452536413893   F   F   F
  0.0000000000000000  0.6666666666666643  0.0989452536413893   F   F   F
  0.3333333333333357  0.6666666666666643  0.0989452536413893   F   F   F
  0.6666666666666643  0.6666666666666643  0.0989452536413893   F   F   F
  0.1679179552007923  0.1677675223695019  0.1978351720559886   T   T   T
  0.4976836610028244  0.1673813791971241  0.1975198742455930   T   T   T
  0.8329190384886189  0.1657085568955807  0.1963079871668612   T   T   T
  0.1673347534647576  0.4977500340640262  0.1975005503106857   T   T   T
  0.4979703142437160  0.4978318788098122  0.1972900628241234   T   T   T
  0.8328288126675076  0.5004379521352860  0.1962707361440437   T   T   T
  0.1656790348829844  0.8328942759517588  0.1963067444216762   T   T   T
  0.5003994817502573  0.8328053545540754  0.1962648425240872   T   T   T
  0.8330566714549477  0.8330912997895226  0.1960647718051405   T   T   T
  0.9984093550493469  0.9984542833675505  0.2948448387415823   T   T   T
  0.3330046136708305  0.9965648320774037  0.2940860113467778   T   T   T
  0.6668700066778541  0.9986007091041316  0.2948032692623457   T   T   T
  0.9971076851708105  0.3329924443069530  0.2940415382665194   T   T   T
  0.3321206015875688  0.3310148077268380  0.3032105010680795   T   T   T
  0.6668219127107875  0.3327296014347638  0.2937153688574980   T   T   T
  0.9985777368952213  0.6668938919967502  0.2947902852759157   T   T   T
  0.3327269130737136  0.6663775054481320  0.2937047894971911   T   T   T
  0.6667389007853046  0.6667779221040391  0.2946567754398046   T   T   T
  0.4899404856211333  0.3381495663083456  0.4317602075341966   T   T   T
  0.3237291055293099  0.5020916859933067  0.4281071455496459   T   T   T
  0.3299537549770832  0.3407495583816242  0.4188992702817274   T   T   T

  0.00000000E+00  0.00000000E+00  0.00000000E+00
  0.00000000E+00  0.00000000E+00  0.00000000E+00
  0.00000000E+00  0.00000000E+00  0.00000000E+00
  0.00000000E+00  0.00000000E+00  0.00000000E+00
  0.00000000E+00  0.00000000E+00  0.00000000E+00
  0.00000000E+00  0.00000000E+00  0.00000000E+00
  0.00000000E+00  0.00000000E+00  0.00000000E+00
  0.00000000E+00  0.00000000E+00  0.00000000E+00
  0.00000000E+00  0.00000000E+00  0.00000000E+00
  0.00000000E+00  0.00000000E+00  0.00000000E+00
  0.00000000E+00  0.00000000E+00  0.00000000E+00
  0.00000000E+00  0.00000000E+00  0.00000000E+00
  0.00000000E+00  0.00000000E+00  0.00000000E+00
  0.00000000E+00  0.00000000E+00  0.00000000E+00
  0.00000000E+00  0.00000000E+00  0.00000000E+00
  0.00000000E+00  0.00000000E+00  0.00000000E+00
  0.00000000E+00  0.00000000E+00  0.00000000E+00
  0.00000000E+00  0.00000000E+00  0.00000000E+00
  0.00000000E+00  0.00000000E+00  0.00000000E+00
  0.00000000E+00  0.00000000E+00  0.00000000E+00
  0.00000000E+00  0.00000000E+00  0.00000000E+00
  0.00000000E+00  0.00000000E+00  0.00000000E+00
  0.00000000E+00  0.00000000E+00  0.00000000E+00
  0.00000000E+00  0.00000000E+00  0.00000000E+00
  0.00000000E+00  0.00000000E+00  0.00000000E+00
  0.00000000E+00  0.00000000E+00  0.00000000E+00
  0.00000000E+00  0.00000000E+00  0.00000000E+00
  0.00000000E+00  0.00000000E+00  0.00000000E+00
  0.00000000E+00  0.00000000E+00  0.00000000E+00
  0.00000000E+00  0.00000000E+00  0.00000000E+00
  0.00000000E+00  0.00000000E+00  0.00000000E+00
  0.00000000E+00  0.00000000E+00  0.00000000E+00
  0.00000000E+00  0.00000000E+00  0.00000000E+00
  0.00000000E+00  0.00000000E+00  0.00000000E+00
  0.00000000E+00  0.00000000E+00  0.00000000E+00
  0.00000000E+00  0.00000000E+00  0.00000000E+00
  0.00000000E+00  0.00000000E+00  0.00000000E+00
  0.00000000E+00  0.00000000E+00  0.00000000E+00
  0.00000000E+00  0.00000000E+00  0.00000000E+00
