Cu H  S                                 
   1.0000000000000000     
     7.7003928471215026    0.0000000000000000    0.0000000000000000
     0.0000000000000000    7.7003928471215026    0.0000000000000000
     0.0000000000000000    0.0000000000000000   20.4450000000000003
   Cu   H    S 
    36     2     1
Selective dynamics
Direct
  0.1666666666666643  0.1666666666666643  0.0000000000000000   F   F   F
  0.5000000000000000  0.1666666666666643  0.0000000000000000   F   F   F
  0.8333333333333357  0.1666666666666643  0.0000000000000000   F   F   F
  0.1666666666666643  0.5000000000000000  0.0000000000000000   F   F   F
  0.5000000000000000  0.5000000000000000  0.0000000000000000   F   F   F
  0.8333333333333357  0.5000000000000000  0.0000000000000000   F   F   F
  0.1666666666666643  0.8333333333333357  0.0000000000000000   F   F   F
  0.5000000000000000  0.8333333333333357  0.0000000000000000   F   F   F
  0.8333333333333357  0.8333333333333357  0.0000000000000000   F   F   F
  0.0000000000000000  0.0000000000000000  0.0887747615553920   F   F   F
  0.3333333333333357  0.0000000000000000  0.0887747615553920   F   F   F
  0.6666666666666643  0.0000000000000000  0.0887747615553920   F   F   F
  0.0000000000000000  0.3333333333333357  0.0887747615553920   F   F   F
  0.3333333333333357  0.3333333333333357  0.0887747615553920   F   F   F
  0.6666666666666643  0.3333333333333357  0.0887747615553920   F   F   F
  0.0000000000000000  0.6666666666666643  0.0887747615553920   F   F   F
  0.3333333333333357  0.6666666666666643  0.0887747615553920   F   F   F
  0.6666666666666643  0.6666666666666643  0.0887747615553920   F   F   F
  0.1667085388952049  0.1668483219058971  0.1793109503774947   T   T   T
  0.4966924154062167  0.1666903727663658  0.1792595218068104   T   T   T
  0.8318727452251455  0.1652416019043389  0.1779697084333331   T   T   T
  0.1665511452804648  0.4968771233424237  0.1791857569305927   T   T   T
  0.4970708694327909  0.4972252029480853  0.1790266747673396   T   T   T
  0.8318745217157347  0.5010547642262074  0.1778767683183112   T   T   T
  0.1652897926724794  0.8320859503825708  0.1779514433743115   T   T   T
  0.5010705153540557  0.8320549848903278  0.1779082912785859   T   T   T
  0.8332062722358767  0.8333244759644806  0.1774304450049592   T   T   T
  0.9994813202421458  0.9994383918460028  0.2651185951192878   T   T   T
  0.3329082364630048  0.9910247170304463  0.2656982094546248   T   T   T
  0.6660598878132405  0.9995938690094884  0.2652785548581233   T   T   T
  0.9906278755195338  0.3330514813749423  0.2655411776397458   T   T   T
  0.3284171530025869  0.3285947627026915  0.2709658463781049   T   T   T
  0.6675218411683146  0.3329145658566273  0.2650235326677576   T   T   T
  0.9994589451093100  0.6662606382759406  0.2652599632900147   T   T   T
  0.3327969148837079  0.6680376226543805  0.2649003240734525   T   T   T
  0.6665350352619072  0.6664560876614534  0.2651625230479130   T   T   T
  0.5062104053217339  0.3467902257485611  0.3973031206536793   T   T   T
  0.3172017079021525  0.5167624554588603  0.3945593232823809   T   T   T
  0.3315810708156591  0.3416611101985123  0.3879325811504113   T   T   T

  0.00000000E+00  0.00000000E+00  0.00000000E+00
  0.00000000E+00  0.00000000E+00  0.00000000E+00
  0.00000000E+00  0.00000000E+00  0.00000000E+00
  0.00000000E+00  0.00000000E+00  0.00000000E+00
  0.00000000E+00  0.00000000E+00  0.00000000E+00
  0.00000000E+00  0.00000000E+00  0.00000000E+00
  0.00000000E+00  0.00000000E+00  0.00000000E+00
  0.00000000E+00  0.00000000E+00  0.00000000E+00
  0.00000000E+00  0.00000000E+00  0.00000000E+00
  0.00000000E+00  0.00000000E+00  0.00000000E+00
  0.00000000E+00  0.00000000E+00  0.00000000E+00
  0.00000000E+00  0.00000000E+00  0.00000000E+00
  0.00000000E+00  0.00000000E+00  0.00000000E+00
  0.00000000E+00  0.00000000E+00  0.00000000E+00
  0.00000000E+00  0.00000000E+00  0.00000000E+00
  0.00000000E+00  0.00000000E+00  0.00000000E+00
  0.00000000E+00  0.00000000E+00  0.00000000E+00
  0.00000000E+00  0.00000000E+00  0.00000000E+00
  0.00000000E+00  0.00000000E+00  0.00000000E+00
  0.00000000E+00  0.00000000E+00  0.00000000E+00
  0.00000000E+00  0.00000000E+00  0.00000000E+00
  0.00000000E+00  0.00000000E+00  0.00000000E+00
  0.00000000E+00  0.00000000E+00  0.00000000E+00
  0.00000000E+00  0.00000000E+00  0.00000000E+00
  0.00000000E+00  0.00000000E+00  0.00000000E+00
  0.00000000E+00  0.00000000E+00  0.00000000E+00
  0.00000000E+00  0.00000000E+00  0.00000000E+00
  0.00000000E+00  0.00000000E+00  0.00000000E+00
  0.00000000E+00  0.00000000E+00  0.00000000E+00
  0.00000000E+00  0.00000000E+00  0.00000000E+00
  0.00000000E+00  0.00000000E+00  0.00000000E+00
  0.00000000E+00  0.00000000E+00  0.00000000E+00
  0.00000000E+00  0.00000000E+00  0.00000000E+00
  0.00000000E+00  0.00000000E+00  0.00000000E+00
  0.00000000E+00  0.00000000E+00  0.00000000E+00
  0.00000000E+00  0.00000000E+00  0.00000000E+00
  0.00000000E+00  0.00000000E+00  0.00000000E+00
  0.00000000E+00  0.00000000E+00  0.00000000E+00
  0.00000000E+00  0.00000000E+00  0.00000000E+00
