Cu H  S                                 
   1.0000000000000000     
     7.7003928471215026    0.0000000000000000    0.0000000000000000
     0.0000000000000000    7.7003928471215026    0.0000000000000000
     0.0000000000000000    0.0000000000000000   20.4450000000000003
   Cu   H    S 
    36     2     1
Selective dynamics
Direct
  0.1666666666666643  0.1666666666666643  0.0000000000000000   F   F   F
  0.5000000000000000  0.1666666666666643  0.0000000000000000   F   F   F
  0.8333333333333357  0.1666666666666643  0.0000000000000000   F   F   F
  0.1666666666666643  0.5000000000000000  0.0000000000000000   F   F   F
  0.5000000000000000  0.5000000000000000  0.0000000000000000   F   F   F
  0.8333333333333357  0.5000000000000000  0.0000000000000000   F   F   F
  0.1666666666666643  0.8333333333333357  0.0000000000000000   F   F   F
  0.5000000000000000  0.8333333333333357  0.0000000000000000   F   F   F
  0.8333333333333357  0.8333333333333357  0.0000000000000000   F   F   F
  0.0000000000000000  0.0000000000000000  0.0887747615553920   F   F   F
  0.3333333333333357  0.0000000000000000  0.0887747615553920   F   F   F
  0.6666666666666643  0.0000000000000000  0.0887747615553920   F   F   F
  0.0000000000000000  0.3333333333333357  0.0887747615553920   F   F   F
  0.3333333333333357  0.3333333333333357  0.0887747615553920   F   F   F
  0.6666666666666643  0.3333333333333357  0.0887747615553920   F   F   F
  0.0000000000000000  0.6666666666666643  0.0887747615553920   F   F   F
  0.3333333333333357  0.6666666666666643  0.0887747615553920   F   F   F
  0.6666666666666643  0.6666666666666643  0.0887747615553920   F   F   F
  0.1658988369301137  0.1692210675033030  0.1780929161862205   T   T   T
  0.4973080589285775  0.1691463457561999  0.1778100509496003   T   T   T
  0.8337839736987961  0.1683053547785597  0.1777014102688856   T   T   T
  0.1660236836993374  0.4969016741279380  0.1781599159336685   T   T   T
  0.4987992907884241  0.4957185740642717  0.1792695578112328   T   T   T
  0.8321613094194834  0.4951417203720654  0.1790450923472916   T   T   T
  0.1668328238533527  0.8319095581121286  0.1764721795343737   T   T   T
  0.5029588560165676  0.8360779305306582  0.1778772831413398   T   T   T
  0.8300508822560850  0.8355393201399895  0.1778996761310233   T   T   T
  0.0011761920488990  0.9942985956728843  0.2622314577675975   T   T   T
  0.3315977092301526  0.9963070903150755  0.2623365754616691   T   T   T
  0.6661342264540446  0.0052826151229739  0.2689095393316462   T   T   T
  0.9930745917119861  0.3316240194946830  0.2702673166755604   T   T   T
  0.3320250729273462  0.3346282760695178  0.2712680582744730   T   T   T
  0.6627493232488810  0.3300036578671298  0.2686790128659126   T   T   T
  0.9988033800828987  0.6686087443943735  0.2625928866254142   T   T   T
  0.3341225201541606  0.6703459579314316  0.2628556592332533   T   T   T
  0.6664879846672990  0.6679648745841100  0.2631328448189513   T   T   T
  0.6615555207865307  0.1690583877379403  0.3226581836599990   T   T   T
  0.1558014353860184  0.5008307130509612  0.3790083176839590   T   T   T
  0.1594421883917297  0.3303495847592050  0.3622813386624335   T   T   T

  0.00000000E+00  0.00000000E+00  0.00000000E+00
  0.00000000E+00  0.00000000E+00  0.00000000E+00
  0.00000000E+00  0.00000000E+00  0.00000000E+00
  0.00000000E+00  0.00000000E+00  0.00000000E+00
  0.00000000E+00  0.00000000E+00  0.00000000E+00
  0.00000000E+00  0.00000000E+00  0.00000000E+00
  0.00000000E+00  0.00000000E+00  0.00000000E+00
  0.00000000E+00  0.00000000E+00  0.00000000E+00
  0.00000000E+00  0.00000000E+00  0.00000000E+00
  0.00000000E+00  0.00000000E+00  0.00000000E+00
  0.00000000E+00  0.00000000E+00  0.00000000E+00
  0.00000000E+00  0.00000000E+00  0.00000000E+00
  0.00000000E+00  0.00000000E+00  0.00000000E+00
  0.00000000E+00  0.00000000E+00  0.00000000E+00
  0.00000000E+00  0.00000000E+00  0.00000000E+00
  0.00000000E+00  0.00000000E+00  0.00000000E+00
  0.00000000E+00  0.00000000E+00  0.00000000E+00
  0.00000000E+00  0.00000000E+00  0.00000000E+00
  0.00000000E+00  0.00000000E+00  0.00000000E+00
  0.00000000E+00  0.00000000E+00  0.00000000E+00
  0.00000000E+00  0.00000000E+00  0.00000000E+00
  0.00000000E+00  0.00000000E+00  0.00000000E+00
  0.00000000E+00  0.00000000E+00  0.00000000E+00
  0.00000000E+00  0.00000000E+00  0.00000000E+00
  0.00000000E+00  0.00000000E+00  0.00000000E+00
  0.00000000E+00  0.00000000E+00  0.00000000E+00
  0.00000000E+00  0.00000000E+00  0.00000000E+00
  0.00000000E+00  0.00000000E+00  0.00000000E+00
  0.00000000E+00  0.00000000E+00  0.00000000E+00
  0.00000000E+00  0.00000000E+00  0.00000000E+00
  0.00000000E+00  0.00000000E+00  0.00000000E+00
  0.00000000E+00  0.00000000E+00  0.00000000E+00
  0.00000000E+00  0.00000000E+00  0.00000000E+00
  0.00000000E+00  0.00000000E+00  0.00000000E+00
  0.00000000E+00  0.00000000E+00  0.00000000E+00
  0.00000000E+00  0.00000000E+00  0.00000000E+00
  0.00000000E+00  0.00000000E+00  0.00000000E+00
  0.00000000E+00  0.00000000E+00  0.00000000E+00
  0.00000000E+00  0.00000000E+00  0.00000000E+00
