Pd H  S                                 
   1.0000000000000000     
     8.3580021536249909    0.0000000000000000    0.0000000000000000
     0.0000000000000000    8.3580021536249909    0.0000000000000000
     0.0000000000000000    0.0000000000000000   19.9100000000000001
   Pd   H    S 
    36     2     1
Selective dynamics
Direct
  0.1666666666666643  0.1666666666666643  0.0000000000000000   F   F   F
  0.5000000000000000  0.1666666666666643  0.0000000000000000   F   F   F
  0.8333333333333357  0.1666666666666643  0.0000000000000000   F   F   F
  0.1666666666666643  0.5000000000000000  0.0000000000000000   F   F   F
  0.5000000000000000  0.5000000000000000  0.0000000000000000   F   F   F
  0.8333333333333357  0.5000000000000000  0.0000000000000000   F   F   F
  0.1666666666666643  0.8333333333333357  0.0000000000000000   F   F   F
  0.5000000000000000  0.8333333333333357  0.0000000000000000   F   F   F
  0.8333333333333357  0.8333333333333357  0.0000000000000000   F   F   F
  0.0000000000000000  0.0000000000000000  0.0989452536413893   F   F   F
  0.3333333333333357  0.0000000000000000  0.0989452536413893   F   F   F
  0.6666666666666643  0.0000000000000000  0.0989452536413893   F   F   F
  0.0000000000000000  0.3333333333333357  0.0989452536413893   F   F   F
  0.3333333333333357  0.3333333333333357  0.0989452536413893   F   F   F
  0.6666666666666643  0.3333333333333357  0.0989452536413893   F   F   F
  0.0000000000000000  0.6666666666666643  0.0989452536413893   F   F   F
  0.3333333333333357  0.6666666666666643  0.0989452536413893   F   F   F
  0.6666666666666643  0.6666666666666643  0.0989452536413893   F   F   F
  0.1732167475337860  0.1643546765043951  0.1991085023080785   T   T   T
  0.5003415705143652  0.1651589479766713  0.1981841811051694   T   T   T
  0.8363567368542775  0.1649631027240517  0.1953261626668805   T   T   T
  0.1701273806195758  0.4970565567445746  0.1978317158105867   T   T   T
  0.4997388333356483  0.4953794004935830  0.1987233603805478   T   T   T
  0.8363732722949138  0.5019906381341741  0.1966057599257311   T   T   T
  0.1680577246906054  0.8300557447472414  0.1979401704814165   T   T   T
  0.4992691555236988  0.8306940854083038  0.1985988987936906   T   T   T
  0.8340880336432122  0.8345691120241980  0.1975321032054040   T   T   T
  0.0001051884180185  0.9997054785071029  0.2960036463141904   T   T   T
  0.3330018196844406  0.9917340034504676  0.2970812440374289   T   T   T
  0.6674091974276379  0.0000779702201470  0.2962875093368282   T   T   T
  0.0086393305079753  0.3305034305642494  0.2948455284014884   T   T   T
  0.3497129725990149  0.3125177491756759  0.3020555966689074   T   T   T
  0.6847957871308168  0.3351451332790845  0.2944976637827850   T   T   T
  0.9975779904742339  0.6653743302373059  0.2969185059328368   T   T   T
  0.3327326876355983  0.6673747662284697  0.3006699780052458   T   T   T
  0.6694037791309952  0.6682527197004902  0.2959062190644133   T   T   T
  0.5553066753702254  0.2732131177049766  0.3477761182668502   T   T   T
  0.4949003827278133  0.5148853567940677  0.4020013851099620   T   T   T
  0.3373036798638580  0.4939686508240726  0.3883984543517016   T   T   T

  0.00000000E+00  0.00000000E+00  0.00000000E+00
  0.00000000E+00  0.00000000E+00  0.00000000E+00
  0.00000000E+00  0.00000000E+00  0.00000000E+00
  0.00000000E+00  0.00000000E+00  0.00000000E+00
  0.00000000E+00  0.00000000E+00  0.00000000E+00
  0.00000000E+00  0.00000000E+00  0.00000000E+00
  0.00000000E+00  0.00000000E+00  0.00000000E+00
  0.00000000E+00  0.00000000E+00  0.00000000E+00
  0.00000000E+00  0.00000000E+00  0.00000000E+00
  0.00000000E+00  0.00000000E+00  0.00000000E+00
  0.00000000E+00  0.00000000E+00  0.00000000E+00
  0.00000000E+00  0.00000000E+00  0.00000000E+00
  0.00000000E+00  0.00000000E+00  0.00000000E+00
  0.00000000E+00  0.00000000E+00  0.00000000E+00
  0.00000000E+00  0.00000000E+00  0.00000000E+00
  0.00000000E+00  0.00000000E+00  0.00000000E+00
  0.00000000E+00  0.00000000E+00  0.00000000E+00
  0.00000000E+00  0.00000000E+00  0.00000000E+00
  0.00000000E+00  0.00000000E+00  0.00000000E+00
  0.00000000E+00  0.00000000E+00  0.00000000E+00
  0.00000000E+00  0.00000000E+00  0.00000000E+00
  0.00000000E+00  0.00000000E+00  0.00000000E+00
  0.00000000E+00  0.00000000E+00  0.00000000E+00
  0.00000000E+00  0.00000000E+00  0.00000000E+00
  0.00000000E+00  0.00000000E+00  0.00000000E+00
  0.00000000E+00  0.00000000E+00  0.00000000E+00
  0.00000000E+00  0.00000000E+00  0.00000000E+00
  0.00000000E+00  0.00000000E+00  0.00000000E+00
  0.00000000E+00  0.00000000E+00  0.00000000E+00
  0.00000000E+00  0.00000000E+00  0.00000000E+00
  0.00000000E+00  0.00000000E+00  0.00000000E+00
  0.00000000E+00  0.00000000E+00  0.00000000E+00
  0.00000000E+00  0.00000000E+00  0.00000000E+00
  0.00000000E+00  0.00000000E+00  0.00000000E+00
  0.00000000E+00  0.00000000E+00  0.00000000E+00
  0.00000000E+00  0.00000000E+00  0.00000000E+00
  0.00000000E+00  0.00000000E+00  0.00000000E+00
  0.00000000E+00  0.00000000E+00  0.00000000E+00
  0.00000000E+00  0.00000000E+00  0.00000000E+00
