Pd H  S 
 1.0000000000000000
     8.3580021536249909    0.0000000000000000    0.0000000000000000
     0.0000000000000000    8.3580021536249909    0.0000000000000000
     0.0000000000000000    0.0000000000000000   19.9100000000000001
 Pd  H   S  
  36   2   1
Selective dynamics
Cartesian
  1.3930003589374786  1.3930003589374786  0.0000000000000000   F   F   F
  4.1790010768124954  1.3930003589374786  0.0000000000000000   F   F   F
  6.9650017946875122  1.3930003589374786  0.0000000000000000   F   F   F
  1.3930003589374786  4.1790010768124954  0.0000000000000000   F   F   F
  4.1790010768124954  4.1790010768124954  0.0000000000000000   F   F   F
  6.9650017946875122  4.1790010768124954  0.0000000000000000   F   F   F
  1.3930003589374786  6.9650017946875122  0.0000000000000000   F   F   F
  4.1790010768124954  6.9650017946875122  0.0000000000000000   F   F   F
  6.9650017946875122  6.9650017946875122  0.0000000000000000   F   F   F
  0.0000000000000000  0.0000000000000000  1.9700000000000610   F   F   F
  2.7860007178750168  0.0000000000000000  1.9700000000000610   F   F   F
  5.5720014357499741  0.0000000000000000  1.9700000000000610   F   F   F
  0.0000000000000000  2.7860007178750168  1.9700000000000610   F   F   F
  2.7860007178750168  2.7860007178750168  1.9700000000000610   F   F   F
  5.5720014357499741  2.7860007178750168  1.9700000000000610   F   F   F
  0.0000000000000000  5.5720014357499741  1.9700000000000610   F   F   F
  2.7860007178750168  5.5720014357499741  1.9700000000000610   F   F   F
  5.5720014357499741  5.5720014357499741  1.9700000000000610   F   F   F
  1.4477459489312849  1.3736767401820487  3.9642502809537858   T   T   T
  4.1818559239071922  1.3803988428794516  3.9458470458039381   T   T   T
  6.9902714078267962  1.3787619678362575  3.8889438986975282   T   T   T
  1.4219250136089974  4.1543997717445640  3.9388294617888033   T   T   T
  4.1768182452693665  4.1403820961868236  3.9565821051766377   T   T   T
  6.9904096110752478  4.1956388346249822  3.9144206801213275   T   T   T
  1.4046268248973817  6.9376077022262335  3.9409887942850017   T   T   T
  4.1728926771055779  6.9429429548461528  3.9541040749823257   T   T   T
  6.9713095815027755  6.9753304356471144  3.9328641748196067   T   T   T
  8.3588813186493223  8.3555405423530917  5.8934325981154858   T   T   T
  2.7832299260836226  8.2889149366621435  5.9148875687852280   T   T   T
  5.5782075094493084  8.3586538288928960  5.8990843108962681   T   T   T
  8.4302096966165188  2.7623483844364287  5.8703744704735747   T   T   T
  2.9229017781331428  2.6120240206563108  6.0139269296778854   T   T   T
  5.7235246636326931  2.8011437457235058  5.8634484859153142   T   T   T
  8.3377589927925371  5.5612000850901691  5.9116474531227734   T   T   T
  2.7809805198397752  5.5779197334125135  5.9863392620843747   T   T   T
  5.5948782276215772  5.5852576704224752  5.8914928215724194   T   T   T
  4.6412543886666970  2.2835158261767732  6.9242225146929970   T   T   T
  4.1363784646688728  4.3034129209548029  8.0038475775393358   T   T   T
  2.8191848827277735  4.1285910474108061  7.7330132261423552   T   T   T
