Pd H  S                                 
   1.0000000000000000     
     8.3580021536249909    0.0000000000000000    0.0000000000000000
     0.0000000000000000    8.3580021536249909    0.0000000000000000
     0.0000000000000000    0.0000000000000000   19.9100000000000001
   Pd   H    S 
    36     2     1
Selective dynamics
Direct
  0.1666666666666643  0.1666666666666643  0.0000000000000000   F   F   F
  0.5000000000000000  0.1666666666666643  0.0000000000000000   F   F   F
  0.8333333333333357  0.1666666666666643  0.0000000000000000   F   F   F
  0.1666666666666643  0.5000000000000000  0.0000000000000000   F   F   F
  0.5000000000000000  0.5000000000000000  0.0000000000000000   F   F   F
  0.8333333333333357  0.5000000000000000  0.0000000000000000   F   F   F
  0.1666666666666643  0.8333333333333357  0.0000000000000000   F   F   F
  0.5000000000000000  0.8333333333333357  0.0000000000000000   F   F   F
  0.8333333333333357  0.8333333333333357  0.0000000000000000   F   F   F
  0.0000000000000000  0.0000000000000000  0.0989452536413893   F   F   F
  0.3333333333333357  0.0000000000000000  0.0989452536413893   F   F   F
  0.6666666666666643  0.0000000000000000  0.0989452536413893   F   F   F
  0.0000000000000000  0.3333333333333357  0.0989452536413893   F   F   F
  0.3333333333333357  0.3333333333333357  0.0989452536413893   F   F   F
  0.6666666666666643  0.3333333333333357  0.0989452536413893   F   F   F
  0.0000000000000000  0.6666666666666643  0.0989452536413893   F   F   F
  0.3333333333333357  0.6666666666666643  0.0989452536413893   F   F   F
  0.6666666666666643  0.6666666666666643  0.0989452536413893   F   F   F
  0.1683930603297341  0.1653029533021737  0.1979305974753487   T   T   T
  0.4997731380026593  0.1676046790129888  0.1991300761630939   T   T   T
  0.8362501573217642  0.1690425949967036  0.1985353005910824   T   T   T
  0.1697880834129819  0.4989204675740027  0.1984125729420185   T   T   T
  0.5026320476250987  0.4989199293105173  0.1979386139463060   T   T   T
  0.8362438371816978  0.5016405954608132  0.1978115817069792   T   T   T
  0.1668474912440914  0.8335576860678700  0.1964838417409922   T   T   T
  0.5023200313178933  0.8348748384337910  0.1963634438313946   T   T   T
  0.8355831925648403  0.8341215111915972  0.1985073293477839   T   T   T
  0.0009602867848528  0.9986088647339528  0.2963687034699589   T   T   T
  0.3338744531178364  0.9972710261650874  0.2963466524832583   T   T   T
  0.6674205270112452  0.0015404420306879  0.2972982804977491   T   T   T
  0.9994211259817334  0.3318954471484545  0.2976388853218666   T   T   T
  0.3422584551463146  0.3248733538891742  0.3034321863354137   T   T   T
  0.6732780659250821  0.3354724603602364  0.2969959911336986   T   T   T
  0.0065777850336630  0.6688185425512216  0.3003927663090593   T   T   T
  0.3428816941863175  0.6735628219564944  0.2948627375961053   T   T   T
  0.6724800818889705  0.6710581667166764  0.2956281375129635   T   T   T
  0.5183580566993768  0.2566458208483482  0.3412968147144966   T   T   T
  0.2707597034748090  0.6060210334972567  0.3697455960539386   T   T   T
  0.1643991076284621  0.4565369056515465  0.3743723456352086   T   T   T

  0.00000000E+00  0.00000000E+00  0.00000000E+00
  0.00000000E+00  0.00000000E+00  0.00000000E+00
  0.00000000E+00  0.00000000E+00  0.00000000E+00
  0.00000000E+00  0.00000000E+00  0.00000000E+00
  0.00000000E+00  0.00000000E+00  0.00000000E+00
  0.00000000E+00  0.00000000E+00  0.00000000E+00
  0.00000000E+00  0.00000000E+00  0.00000000E+00
  0.00000000E+00  0.00000000E+00  0.00000000E+00
  0.00000000E+00  0.00000000E+00  0.00000000E+00
  0.00000000E+00  0.00000000E+00  0.00000000E+00
  0.00000000E+00  0.00000000E+00  0.00000000E+00
  0.00000000E+00  0.00000000E+00  0.00000000E+00
  0.00000000E+00  0.00000000E+00  0.00000000E+00
  0.00000000E+00  0.00000000E+00  0.00000000E+00
  0.00000000E+00  0.00000000E+00  0.00000000E+00
  0.00000000E+00  0.00000000E+00  0.00000000E+00
  0.00000000E+00  0.00000000E+00  0.00000000E+00
  0.00000000E+00  0.00000000E+00  0.00000000E+00
  0.00000000E+00  0.00000000E+00  0.00000000E+00
  0.00000000E+00  0.00000000E+00  0.00000000E+00
  0.00000000E+00  0.00000000E+00  0.00000000E+00
  0.00000000E+00  0.00000000E+00  0.00000000E+00
  0.00000000E+00  0.00000000E+00  0.00000000E+00
  0.00000000E+00  0.00000000E+00  0.00000000E+00
  0.00000000E+00  0.00000000E+00  0.00000000E+00
  0.00000000E+00  0.00000000E+00  0.00000000E+00
  0.00000000E+00  0.00000000E+00  0.00000000E+00
  0.00000000E+00  0.00000000E+00  0.00000000E+00
  0.00000000E+00  0.00000000E+00  0.00000000E+00
  0.00000000E+00  0.00000000E+00  0.00000000E+00
  0.00000000E+00  0.00000000E+00  0.00000000E+00
  0.00000000E+00  0.00000000E+00  0.00000000E+00
  0.00000000E+00  0.00000000E+00  0.00000000E+00
  0.00000000E+00  0.00000000E+00  0.00000000E+00
  0.00000000E+00  0.00000000E+00  0.00000000E+00
  0.00000000E+00  0.00000000E+00  0.00000000E+00
  0.00000000E+00  0.00000000E+00  0.00000000E+00
  0.00000000E+00  0.00000000E+00  0.00000000E+00
  0.00000000E+00  0.00000000E+00  0.00000000E+00
