Pd H  S 
 1.0000000000000000
     8.3580021536249909    0.0000000000000000    0.0000000000000000
     0.0000000000000000    8.3580021536249909    0.0000000000000000
     0.0000000000000000    0.0000000000000000   19.9100000000000001
 Pd  H   S  
  36   2   1
Selective dynamics
Cartesian
  1.3930003589374786  1.3930003589374786  0.0000000000000000   F   F   F
  4.1790010768124954  1.3930003589374786  0.0000000000000000   F   F   F
  6.9650017946875122  1.3930003589374786  0.0000000000000000   F   F   F
  1.3930003589374786  4.1790010768124954  0.0000000000000000   F   F   F
  4.1790010768124954  4.1790010768124954  0.0000000000000000   F   F   F
  6.9650017946875122  4.1790010768124954  0.0000000000000000   F   F   F
  1.3930003589374786  6.9650017946875122  0.0000000000000000   F   F   F
  4.1790010768124954  6.9650017946875122  0.0000000000000000   F   F   F
  6.9650017946875122  6.9650017946875122  0.0000000000000000   F   F   F
  0.0000000000000000  0.0000000000000000  1.9700000000000610   F   F   F
  2.7860007178750168  0.0000000000000000  1.9700000000000610   F   F   F
  5.5720014357499741  0.0000000000000000  1.9700000000000610   F   F   F
  0.0000000000000000  2.7860007178750168  1.9700000000000610   F   F   F
  2.7860007178750168  2.7860007178750168  1.9700000000000610   F   F   F
  5.5720014357499741  2.7860007178750168  1.9700000000000610   F   F   F
  0.0000000000000000  5.5720014357499741  1.9700000000000610   F   F   F
  2.7860007178750168  5.5720014357499741  1.9700000000000610   F   F   F
  5.5720014357499741  5.5720014357499741  1.9700000000000610   F   F   F
  1.4074295608914216  1.3816024397001236  3.9407981957342026   T   T   T
  4.1771049637501525  1.4008402681481880  3.9646798164072252   T   T   T
  6.9893806158645226  1.4128583730367943  3.9528378347683932   T   T   T
  1.4190891668255672  4.1699783424710732  3.9503943272756281   T   T   T
  4.2009997365315019  4.1699738436637519  3.9409578036709743   T   T   T
  6.9893277921202639  4.1927131772071817  3.9384285917859483   T   T   T
  1.3945116911450275  6.9668769353259012  3.9119932890630937   T   T   T
  4.1983919035639383  6.9778856976369372  3.9095961666831123   T   T   T
  6.9838061229897805  6.9715893869243306  3.9522809273143618   T   T   T
  8.3660282326409092  8.3463750420754028  5.9007008860869430   T   T   T
  2.7905233981992694  8.3351933844356036  5.9002618509417104   T   T   T
  5.5783022021335222  8.3708771714350352  5.9192087647101372   T   T   T
  8.3531639233336428  2.7739828620451035  5.9259902067584100   T   T   T
  2.8605969052092872  2.7152921914610739  6.0413348299381093   T   T   T
  5.6272595249902890  2.8038795461727357  5.9131901834719827   T   T   T
  8.4129792951024456  5.5899868190274340  5.9808199772133133   T   T   T
  2.8658059384478509  5.6296395165141346  5.8707171055384082   T   T   T
  5.6205899726979371  5.6087056026256246  5.8859562178831402   T   T   T
  4.3324377542422807  2.1450463233693289  6.7952195809656795   T   T   T
  2.2630101847573370  5.0651251031120967  7.3616348174338668   T   T   T
  1.3740480956127132  3.8157364406449084  7.4537534015969644   T   T   T
