Pt H  S                                 
   1.0000000000000000     
     8.4216417639317811    0.0000000000000000    0.0000000000000000
     0.0000000000000000    8.4216417639317811    0.0000000000000000
     0.0000000000000000    0.0000000000000000   20.9549999999999983
   Pt   H    S 
    36     1     1
Selective dynamics
Direct
  0.1666666666666643  0.1666666666666643  0.0000000000000000   F   F   F
  0.5000000000000000  0.1666666666666643  0.0000000000000000   F   F   F
  0.8333333333333357  0.1666666666666643  0.0000000000000000   F   F   F
  0.1666666666666643  0.5000000000000000  0.0000000000000000   F   F   F
  0.5000000000000000  0.5000000000000000  0.0000000000000000   F   F   F
  0.8333333333333357  0.5000000000000000  0.0000000000000000   F   F   F
  0.1666666666666643  0.8333333333333357  0.0000000000000000   F   F   F
  0.5000000000000000  0.8333333333333357  0.0000000000000000   F   F   F
  0.8333333333333357  0.8333333333333357  0.0000000000000000   F   F   F
  0.0000000000000000  0.0000000000000000  0.0947267955141982   F   F   F
  0.3333333333333357  0.0000000000000000  0.0947267955141982   F   F   F
  0.6666666666666643  0.0000000000000000  0.0947267955141982   F   F   F
  0.0000000000000000  0.3333333333333357  0.0947267955141982   F   F   F
  0.3333333333333357  0.3333333333333357  0.0947267955141982   F   F   F
  0.6666666666666643  0.3333333333333357  0.0947267955141982   F   F   F
  0.0000000000000000  0.6666666666666643  0.0947267955141982   F   F   F
  0.3333333333333357  0.6666666666666643  0.0947267955141982   F   F   F
  0.6666666666666643  0.6666666666666643  0.0947267955141982   F   F   F
  0.1663471689079694  0.1660445511401639  0.1880342572368301   T   T   T
  0.4987659266710612  0.1666138426783107  0.1897946766606593   T   T   T
  0.8340078795840242  0.1665424161753913  0.1897469489882264   T   T   T
  0.1665394577063263  0.4990176110090102  0.1871187126703322   T   T   T
  0.4996204625494836  0.4988406545989407  0.1878836527500665   T   T   T
  0.8331078751292387  0.4988732788971693  0.1878456986623523   T   T   T
  0.1664372324208498  0.8326607311696993  0.1878264509828246   T   T   T
  0.4986654474314418  0.8314233058481199  0.1898297715755545   T   T   T
  0.8339303841560206  0.8313913522872675  0.1897252669939471   T   T   T
  0.9999599926187644  0.9985193286390411  0.2814886830361191   T   T   T
  0.3322457449377283  0.9984479767623604  0.2814944224239319   T   T   T
  0.6661644758307302  0.9985126561992321  0.2822188756391203   T   T   T
  0.9917490757292428  0.3239723522549047  0.2846895689165062   T   T   T
  0.3406882562222184  0.3239061534924282  0.2847760894796230   T   T   T
  0.6662180591204268  0.3322262700626905  0.2814290730378963   T   T   T
  0.9916740379581651  0.6728664924718879  0.2842194151821337   T   T   T
  0.3406039741580345  0.6725482704149265  0.2843976457743672   T   T   T
  0.6660421700678797  0.6643002983793096  0.2813793348770092   T   T   T
  0.1641100227437352  0.5030009502377520  0.4048834604981245   T   T   T
  0.1656373452198858  0.4993260345144275  0.3393618921914596   T   T   T

  0.00000000E+00  0.00000000E+00  0.00000000E+00
  0.00000000E+00  0.00000000E+00  0.00000000E+00
  0.00000000E+00  0.00000000E+00  0.00000000E+00
  0.00000000E+00  0.00000000E+00  0.00000000E+00
  0.00000000E+00  0.00000000E+00  0.00000000E+00
  0.00000000E+00  0.00000000E+00  0.00000000E+00
  0.00000000E+00  0.00000000E+00  0.00000000E+00
  0.00000000E+00  0.00000000E+00  0.00000000E+00
  0.00000000E+00  0.00000000E+00  0.00000000E+00
  0.00000000E+00  0.00000000E+00  0.00000000E+00
  0.00000000E+00  0.00000000E+00  0.00000000E+00
  0.00000000E+00  0.00000000E+00  0.00000000E+00
  0.00000000E+00  0.00000000E+00  0.00000000E+00
  0.00000000E+00  0.00000000E+00  0.00000000E+00
  0.00000000E+00  0.00000000E+00  0.00000000E+00
  0.00000000E+00  0.00000000E+00  0.00000000E+00
  0.00000000E+00  0.00000000E+00  0.00000000E+00
  0.00000000E+00  0.00000000E+00  0.00000000E+00
  0.00000000E+00  0.00000000E+00  0.00000000E+00
  0.00000000E+00  0.00000000E+00  0.00000000E+00
  0.00000000E+00  0.00000000E+00  0.00000000E+00
  0.00000000E+00  0.00000000E+00  0.00000000E+00
  0.00000000E+00  0.00000000E+00  0.00000000E+00
  0.00000000E+00  0.00000000E+00  0.00000000E+00
  0.00000000E+00  0.00000000E+00  0.00000000E+00
  0.00000000E+00  0.00000000E+00  0.00000000E+00
  0.00000000E+00  0.00000000E+00  0.00000000E+00
  0.00000000E+00  0.00000000E+00  0.00000000E+00
  0.00000000E+00  0.00000000E+00  0.00000000E+00
  0.00000000E+00  0.00000000E+00  0.00000000E+00
  0.00000000E+00  0.00000000E+00  0.00000000E+00
  0.00000000E+00  0.00000000E+00  0.00000000E+00
  0.00000000E+00  0.00000000E+00  0.00000000E+00
  0.00000000E+00  0.00000000E+00  0.00000000E+00
  0.00000000E+00  0.00000000E+00  0.00000000E+00
  0.00000000E+00  0.00000000E+00  0.00000000E+00
  0.00000000E+00  0.00000000E+00  0.00000000E+00
  0.00000000E+00  0.00000000E+00  0.00000000E+00
