Pt H  S                                 
   1.0000000000000000     
     8.4216417639317811    0.0000000000000000    0.0000000000000000
     0.0000000000000000    8.4216417639317811    0.0000000000000000
     0.0000000000000000    0.0000000000000000   20.9549999999999983
   Pt   H    S 
    36     1     1
Selective dynamics
Direct
  0.1666666666666643  0.1666666666666643  0.0000000000000000   F   F   F
  0.5000000000000000  0.1666666666666643  0.0000000000000000   F   F   F
  0.8333333333333357  0.1666666666666643  0.0000000000000000   F   F   F
  0.1666666666666643  0.5000000000000000  0.0000000000000000   F   F   F
  0.5000000000000000  0.5000000000000000  0.0000000000000000   F   F   F
  0.8333333333333357  0.5000000000000000  0.0000000000000000   F   F   F
  0.1666666666666643  0.8333333333333357  0.0000000000000000   F   F   F
  0.5000000000000000  0.8333333333333357  0.0000000000000000   F   F   F
  0.8333333333333357  0.8333333333333357  0.0000000000000000   F   F   F
  0.0000000000000000  0.0000000000000000  0.0947267955141982   F   F   F
  0.3333333333333357  0.0000000000000000  0.0947267955141982   F   F   F
  0.6666666666666643  0.0000000000000000  0.0947267955141982   F   F   F
  0.0000000000000000  0.3333333333333357  0.0947267955141982   F   F   F
  0.3333333333333357  0.3333333333333357  0.0947267955141982   F   F   F
  0.6666666666666643  0.3333333333333357  0.0947267955141982   F   F   F
  0.0000000000000000  0.6666666666666643  0.0947267955141982   F   F   F
  0.3333333333333357  0.6666666666666643  0.0947267955141982   F   F   F
  0.6666666666666643  0.6666666666666643  0.0947267955141982   F   F   F
  0.1663996606766611  0.1657068650580229  0.1884046007334903   T   T   T
  0.4983040117070667  0.1653587086235975  0.1908202361344055   T   T   T
  0.8346116735761968  0.1653004996954108  0.1908256111275001   T   T   T
  0.1665071205808408  0.4991720312061861  0.1865908727630563   T   T   T
  0.4996013084934646  0.4990027389201525  0.1873911067912301   T   T   T
  0.8334199250059624  0.4989676747767016  0.1873627970726198   T   T   T
  0.1664988817683717  0.8326312237726406  0.1883227118945257   T   T   T
  0.4983527327727473  0.8327757949485548  0.1906803477821500   T   T   T
  0.8345991679385394  0.8327813042192004  0.1906937962671157   T   T   T
  0.9982670026542447  0.9981858619351126  0.2841490428094572   T   T   T
  0.3342917564024780  0.9981883360838795  0.2840949500251047   T   T   T
  0.6662389846676139  0.9986348132294699  0.2830689453932725   T   T   T
  0.9949721322305198  0.3304763235250167  0.2842407294590754   T   T   T
  0.3376890822503438  0.3304934855376588  0.2842278005143379   T   T   T
  0.6663621345790962  0.3330616528711658  0.2813262698622454   T   T   T
  0.9947211295523497  0.6659566859225083  0.2840732069778738   T   T   T
  0.3380433004442563  0.6659180554551201  0.2840484019646489   T   T   T
  0.6663203951509775  0.6642733456306428  0.2812328386073000   T   T   T
  0.1664525217802177  0.9934222021994100  0.3340017502234037   T   T   T
  0.1663366056928508  0.4986255277114364  0.3439267996918562   T   T   T

  0.00000000E+00  0.00000000E+00  0.00000000E+00
  0.00000000E+00  0.00000000E+00  0.00000000E+00
  0.00000000E+00  0.00000000E+00  0.00000000E+00
  0.00000000E+00  0.00000000E+00  0.00000000E+00
  0.00000000E+00  0.00000000E+00  0.00000000E+00
  0.00000000E+00  0.00000000E+00  0.00000000E+00
  0.00000000E+00  0.00000000E+00  0.00000000E+00
  0.00000000E+00  0.00000000E+00  0.00000000E+00
  0.00000000E+00  0.00000000E+00  0.00000000E+00
  0.00000000E+00  0.00000000E+00  0.00000000E+00
  0.00000000E+00  0.00000000E+00  0.00000000E+00
  0.00000000E+00  0.00000000E+00  0.00000000E+00
  0.00000000E+00  0.00000000E+00  0.00000000E+00
  0.00000000E+00  0.00000000E+00  0.00000000E+00
  0.00000000E+00  0.00000000E+00  0.00000000E+00
  0.00000000E+00  0.00000000E+00  0.00000000E+00
  0.00000000E+00  0.00000000E+00  0.00000000E+00
  0.00000000E+00  0.00000000E+00  0.00000000E+00
  0.00000000E+00  0.00000000E+00  0.00000000E+00
  0.00000000E+00  0.00000000E+00  0.00000000E+00
  0.00000000E+00  0.00000000E+00  0.00000000E+00
  0.00000000E+00  0.00000000E+00  0.00000000E+00
  0.00000000E+00  0.00000000E+00  0.00000000E+00
  0.00000000E+00  0.00000000E+00  0.00000000E+00
  0.00000000E+00  0.00000000E+00  0.00000000E+00
  0.00000000E+00  0.00000000E+00  0.00000000E+00
  0.00000000E+00  0.00000000E+00  0.00000000E+00
  0.00000000E+00  0.00000000E+00  0.00000000E+00
  0.00000000E+00  0.00000000E+00  0.00000000E+00
  0.00000000E+00  0.00000000E+00  0.00000000E+00
  0.00000000E+00  0.00000000E+00  0.00000000E+00
  0.00000000E+00  0.00000000E+00  0.00000000E+00
  0.00000000E+00  0.00000000E+00  0.00000000E+00
  0.00000000E+00  0.00000000E+00  0.00000000E+00
  0.00000000E+00  0.00000000E+00  0.00000000E+00
  0.00000000E+00  0.00000000E+00  0.00000000E+00
  0.00000000E+00  0.00000000E+00  0.00000000E+00
  0.00000000E+00  0.00000000E+00  0.00000000E+00
