Au O 
 1.0000000000000000
     8.8034794257725189    0.0000000000000000    0.0000000000000000
     4.4017397128862594    7.6240368244126415    0.0000000000000000
     0.0000000000000000    0.0000000000000000   23.1880108514108443
 Au  O  
  36   1
Selective dynamics
Cartesian
  0.0000000000000000  0.0000000000000000  0.0000000000000000   F   F   F
  2.9344931419241940  0.0000000000000000  0.0000000000000000   F   F   F
  5.8689862838483249  0.0000000000000000  0.0000000000000000   F   F   F
  1.4672465709620970  2.5413456081375654  0.0000000000000000   F   F   F
  4.4017397128862905  2.5413456081375654  0.0000000000000000   F   F   F
  7.3362328548104214  2.5413456081375654  0.0000000000000000   F   F   F
  2.9344931419241624  5.0826912162750766  0.0000000000000000   F   F   F
  5.8689862838483569  5.0826912162750766  0.0000000000000000   F   F   F
  8.8034794257724869  5.0826912162750766  0.0000000000000000   F   F   F
  1.4672465709621285  0.8471152027125400  2.3960036171368859   F   F   F
  4.4017397128862603  0.8471152027125400  2.3960036171368859   F   F   F
  7.3362328548104534  0.8471152027125400  2.3960036171368859   F   F   F
  2.9344931419241944  3.3884608108500514  2.3960036171368859   F   F   F
  5.8689862838483258  3.3884608108500514  2.3960036171368859   F   F   F
  8.8034794257725189  3.3884608108500514  2.3960036171368859   F   F   F
  4.4017397128862905  5.9298064189876163  2.3960036171368859   F   F   F
  7.3362328548104223  5.9298064189876163  2.3960036171368859   F   F   F
 10.2707259967346154  5.9298064189876163  2.3960036171368859   F   F   F
  8.8105837411672479  1.7046519532914270  4.7969531518750985   T   T   T
  2.9140557286738415  1.6939575995042964  4.8353586878478847   T   T   T
  5.8394253834128005  1.6911025330898484  4.7824329180087073   T   T   T
 10.2679326166825078  4.2129736741273929  4.7898847314035171   T   T   T
  4.3767445226364554  4.2254243147196595  4.7823417375053632   T   T   T
  7.3170512704070587  4.2327718871557503  4.7394247361283774   T   T   T
 11.7306258981769567  6.7810464055631110  4.7435886817560045   T   T   T
  5.8733601779486584  6.7924816428688448  4.7959123913689456   T   T   T
  8.7742160504521447  6.8006944053871301  4.7884153081841641   T   T   T
 13.1798367091467519  7.6241641593483145  7.1390002935988282   T   T   T
  7.4262115976662511  7.4868103780645114  7.2943559415638459   T   T   T
 10.3144475406388736  7.6292171586439039  7.1789489576549101   T   T   T
 10.1780641615966641  2.7130282288947920  7.3039017490604765   T   T   T
  4.4050075841967873  2.5590518137791962  7.2373146656698859   T   T   T
  7.2900496008435276  2.5540613395559437  7.1651511941914192   T   T   T
 11.7518053581799915  5.1387742388146007  7.1791842246544562   T   T   T
  5.8450246548502625  5.0609064436922910  7.1639944106806510   T   T   T
  8.7737853346519881  5.0817648239277471  7.1085156950948205   T   T   T
  2.4705632350367517  1.4414426980777828  8.5341522042051441   T   T   T
