Cu H  S                                 
   1.0000000000000000     
     7.7003928471215026    0.0000000000000000    0.0000000000000000
     0.0000000000000000    7.7003928471215026    0.0000000000000000
     0.0000000000000000    0.0000000000000000   20.4450000000000003
   Cu   H    S 
    36     1     1
Selective dynamics
Direct
  0.1666666666666643  0.1666666666666643  0.0000000000000000   F   F   F
  0.5000000000000000  0.1666666666666643  0.0000000000000000   F   F   F
  0.8333333333333357  0.1666666666666643  0.0000000000000000   F   F   F
  0.1666666666666643  0.5000000000000000  0.0000000000000000   F   F   F
  0.5000000000000000  0.5000000000000000  0.0000000000000000   F   F   F
  0.8333333333333357  0.5000000000000000  0.0000000000000000   F   F   F
  0.1666666666666643  0.8333333333333357  0.0000000000000000   F   F   F
  0.5000000000000000  0.8333333333333357  0.0000000000000000   F   F   F
  0.8333333333333357  0.8333333333333357  0.0000000000000000   F   F   F
  0.0000000000000000  0.0000000000000000  0.0887747615553920   F   F   F
  0.3333333333333357  0.0000000000000000  0.0887747615553920   F   F   F
  0.6666666666666643  0.0000000000000000  0.0887747615553920   F   F   F
  0.0000000000000000  0.3333333333333357  0.0887747615553920   F   F   F
  0.3333333333333357  0.3333333333333357  0.0887747615553920   F   F   F
  0.6666666666666643  0.3333333333333357  0.0887747615553920   F   F   F
  0.0000000000000000  0.6666666666666643  0.0887747615553920   F   F   F
  0.3333333333333357  0.6666666666666643  0.0887747615553920   F   F   F
  0.6666666666666643  0.6666666666666643  0.0887747615553920   F   F   F
  0.1676067489437962  0.1689823114422195  0.1784125224718509   T   T   T
  0.4994079385103193  0.1673557063193878  0.1787057231513861   T   T   T
  0.8347897339634335  0.1674468491251927  0.1783156225548234   T   T   T
  0.1667759066977131  0.4998977059152250  0.1774513432519098   T   T   T
  0.4976218346679339  0.4992543648245443  0.1784132683623051   T   T   T
  0.8353087253588057  0.4997567094746739  0.1781575138170299   T   T   T
  0.1671085075119106  0.8311822950479902  0.1781916660763744   T   T   T
  0.4993729030227484  0.8319108529621817  0.1783340028852895   T   T   T
  0.8346178045756572  0.8320971607276844  0.1783151220491712   T   T   T
  0.0012787890311717  0.0001104624113195  0.2639367736715287   T   T   T
  0.3342123290790854  0.9991449006002421  0.2642395776227838   T   T   T
  0.6681148596954368  0.9990491232719040  0.2646953014280505   T   T   T
  0.9944901986882742  0.3278094047888198  0.2682885729426431   T   T   T
  0.3394847766402981  0.3270637859666583  0.2691168083868242   T   T   T
  0.6672545122932553  0.3328006933395666  0.2642033633204982   T   T   T
  0.9939285828423442  0.6724911463015401  0.2683183623705439   T   T   T
  0.3387691081996891  0.6717617434953687  0.2683751550591674   T   T   T
  0.6663961769026251  0.6657201494885984  0.2639961874472914   T   T   T
  0.1635332494460993  0.4999806055424724  0.4050579757526871   T   T   T
  0.1656824808505537  0.5000448840773286  0.3379339906299172   T   T   T

  0.00000000E+00  0.00000000E+00  0.00000000E+00
  0.00000000E+00  0.00000000E+00  0.00000000E+00
  0.00000000E+00  0.00000000E+00  0.00000000E+00
  0.00000000E+00  0.00000000E+00  0.00000000E+00
  0.00000000E+00  0.00000000E+00  0.00000000E+00
  0.00000000E+00  0.00000000E+00  0.00000000E+00
  0.00000000E+00  0.00000000E+00  0.00000000E+00
  0.00000000E+00  0.00000000E+00  0.00000000E+00
  0.00000000E+00  0.00000000E+00  0.00000000E+00
  0.00000000E+00  0.00000000E+00  0.00000000E+00
  0.00000000E+00  0.00000000E+00  0.00000000E+00
  0.00000000E+00  0.00000000E+00  0.00000000E+00
  0.00000000E+00  0.00000000E+00  0.00000000E+00
  0.00000000E+00  0.00000000E+00  0.00000000E+00
  0.00000000E+00  0.00000000E+00  0.00000000E+00
  0.00000000E+00  0.00000000E+00  0.00000000E+00
  0.00000000E+00  0.00000000E+00  0.00000000E+00
  0.00000000E+00  0.00000000E+00  0.00000000E+00
  0.00000000E+00  0.00000000E+00  0.00000000E+00
  0.00000000E+00  0.00000000E+00  0.00000000E+00
  0.00000000E+00  0.00000000E+00  0.00000000E+00
  0.00000000E+00  0.00000000E+00  0.00000000E+00
  0.00000000E+00  0.00000000E+00  0.00000000E+00
  0.00000000E+00  0.00000000E+00  0.00000000E+00
  0.00000000E+00  0.00000000E+00  0.00000000E+00
  0.00000000E+00  0.00000000E+00  0.00000000E+00
  0.00000000E+00  0.00000000E+00  0.00000000E+00
  0.00000000E+00  0.00000000E+00  0.00000000E+00
  0.00000000E+00  0.00000000E+00  0.00000000E+00
  0.00000000E+00  0.00000000E+00  0.00000000E+00
  0.00000000E+00  0.00000000E+00  0.00000000E+00
  0.00000000E+00  0.00000000E+00  0.00000000E+00
  0.00000000E+00  0.00000000E+00  0.00000000E+00
  0.00000000E+00  0.00000000E+00  0.00000000E+00
  0.00000000E+00  0.00000000E+00  0.00000000E+00
  0.00000000E+00  0.00000000E+00  0.00000000E+00
  0.00000000E+00  0.00000000E+00  0.00000000E+00
  0.00000000E+00  0.00000000E+00  0.00000000E+00
