Cu H  S                                 
   1.0000000000000000     
     7.7003928471215026    0.0000000000000000    0.0000000000000000
     0.0000000000000000    7.7003928471215026    0.0000000000000000
     0.0000000000000000    0.0000000000000000   20.4450000000000003
   Cu   H    S 
    36     1     1
Selective dynamics
Direct
  0.1666666666666643  0.1666666666666643  0.0000000000000000   F   F   F
  0.5000000000000000  0.1666666666666643  0.0000000000000000   F   F   F
  0.8333333333333357  0.1666666666666643  0.0000000000000000   F   F   F
  0.1666666666666643  0.5000000000000000  0.0000000000000000   F   F   F
  0.5000000000000000  0.5000000000000000  0.0000000000000000   F   F   F
  0.8333333333333357  0.5000000000000000  0.0000000000000000   F   F   F
  0.1666666666666643  0.8333333333333357  0.0000000000000000   F   F   F
  0.5000000000000000  0.8333333333333357  0.0000000000000000   F   F   F
  0.8333333333333357  0.8333333333333357  0.0000000000000000   F   F   F
  0.0000000000000000  0.0000000000000000  0.0887747615553920   F   F   F
  0.3333333333333357  0.0000000000000000  0.0887747615553920   F   F   F
  0.6666666666666643  0.0000000000000000  0.0887747615553920   F   F   F
  0.0000000000000000  0.3333333333333357  0.0887747615553920   F   F   F
  0.3333333333333357  0.3333333333333357  0.0887747615553920   F   F   F
  0.6666666666666643  0.3333333333333357  0.0887747615553920   F   F   F
  0.0000000000000000  0.6666666666666643  0.0887747615553920   F   F   F
  0.3333333333333357  0.6666666666666643  0.0887747615553920   F   F   F
  0.6666666666666643  0.6666666666666643  0.0887747615553920   F   F   F
  0.1668912463488813  0.1672911610123584  0.1774469168261007   T   T   T
  0.4957407947996694  0.1654539026593696  0.1793718772461222   T   T   T
  0.8380279196849227  0.1655730231110892  0.1793613570436960   T   T   T
  0.1667901486583734  0.4997657761938929  0.1761452957904396   T   T   T
  0.4987829912733420  0.4995092939868891  0.1773870973882603   T   T   T
  0.8347826931780498  0.4997341003269996  0.1774074989129182   T   T   T
  0.1666667844809246  0.8319613011515293  0.1773720000300389   T   T   T
  0.4957574659106683  0.8333571755768060  0.1792873482110468   T   T   T
  0.8376216195165210  0.8335800826924786  0.1792863674582404   T   T   T
  0.0040686400603376  0.9991880836639937  0.2685485721589167   T   T   T
  0.3298372484485603  0.9988728930233469  0.2685126240426347   T   T   T
  0.6670235958037967  0.9995603449868726  0.2635571856287821   T   T   T
  0.9969511025372668  0.3323400303034620  0.2680144477348633   T   T   T
  0.3367715974110050  0.3321396533119357  0.2680920388037186   T   T   T
  0.6669329804263268  0.3329360117904135  0.2628692605152905   T   T   T
  0.9966513125425460  0.6661502087293893  0.2680714548387136   T   T   T
  0.3365624379967868  0.6657584659308166  0.2680246688966719   T   T   T
  0.6665897012129576  0.6661274078462138  0.2628856163454634   T   T   T
  0.1670701514554184  0.9914654235201874  0.3216383746392831   T   T   T
  0.1666435436601469  0.4987717239331150  0.3350764781894519   T   T   T

  0.00000000E+00  0.00000000E+00  0.00000000E+00
  0.00000000E+00  0.00000000E+00  0.00000000E+00
  0.00000000E+00  0.00000000E+00  0.00000000E+00
  0.00000000E+00  0.00000000E+00  0.00000000E+00
  0.00000000E+00  0.00000000E+00  0.00000000E+00
  0.00000000E+00  0.00000000E+00  0.00000000E+00
  0.00000000E+00  0.00000000E+00  0.00000000E+00
  0.00000000E+00  0.00000000E+00  0.00000000E+00
  0.00000000E+00  0.00000000E+00  0.00000000E+00
  0.00000000E+00  0.00000000E+00  0.00000000E+00
  0.00000000E+00  0.00000000E+00  0.00000000E+00
  0.00000000E+00  0.00000000E+00  0.00000000E+00
  0.00000000E+00  0.00000000E+00  0.00000000E+00
  0.00000000E+00  0.00000000E+00  0.00000000E+00
  0.00000000E+00  0.00000000E+00  0.00000000E+00
  0.00000000E+00  0.00000000E+00  0.00000000E+00
  0.00000000E+00  0.00000000E+00  0.00000000E+00
  0.00000000E+00  0.00000000E+00  0.00000000E+00
  0.00000000E+00  0.00000000E+00  0.00000000E+00
  0.00000000E+00  0.00000000E+00  0.00000000E+00
  0.00000000E+00  0.00000000E+00  0.00000000E+00
  0.00000000E+00  0.00000000E+00  0.00000000E+00
  0.00000000E+00  0.00000000E+00  0.00000000E+00
  0.00000000E+00  0.00000000E+00  0.00000000E+00
  0.00000000E+00  0.00000000E+00  0.00000000E+00
  0.00000000E+00  0.00000000E+00  0.00000000E+00
  0.00000000E+00  0.00000000E+00  0.00000000E+00
  0.00000000E+00  0.00000000E+00  0.00000000E+00
  0.00000000E+00  0.00000000E+00  0.00000000E+00
  0.00000000E+00  0.00000000E+00  0.00000000E+00
  0.00000000E+00  0.00000000E+00  0.00000000E+00
  0.00000000E+00  0.00000000E+00  0.00000000E+00
  0.00000000E+00  0.00000000E+00  0.00000000E+00
  0.00000000E+00  0.00000000E+00  0.00000000E+00
  0.00000000E+00  0.00000000E+00  0.00000000E+00
  0.00000000E+00  0.00000000E+00  0.00000000E+00
  0.00000000E+00  0.00000000E+00  0.00000000E+00
  0.00000000E+00  0.00000000E+00  0.00000000E+00
