Pd H  S 
 1.0000000000000000
     8.3580021536249909    0.0000000000000000    0.0000000000000000
     0.0000000000000000    8.3580021536249909    0.0000000000000000
     0.0000000000000000    0.0000000000000000   19.9100000000000001
 Pd  H   S  
  36   2   1
Selective dynamics
Cartesian
  1.3930003589374786  1.3930003589374786  0.0000000000000000   F   F   F
  4.1790010768124954  1.3930003589374786  0.0000000000000000   F   F   F
  6.9650017946875122  1.3930003589374786  0.0000000000000000   F   F   F
  1.3930003589374786  4.1790010768124954  0.0000000000000000   F   F   F
  4.1790010768124954  4.1790010768124954  0.0000000000000000   F   F   F
  6.9650017946875122  4.1790010768124954  0.0000000000000000   F   F   F
  1.3930003589374786  6.9650017946875122  0.0000000000000000   F   F   F
  4.1790010768124954  6.9650017946875122  0.0000000000000000   F   F   F
  6.9650017946875122  6.9650017946875122  0.0000000000000000   F   F   F
  0.0000000000000000  0.0000000000000000  1.9700000000000610   F   F   F
  2.7860007178750168  0.0000000000000000  1.9700000000000610   F   F   F
  5.5720014357499741  0.0000000000000000  1.9700000000000610   F   F   F
  0.0000000000000000  2.7860007178750168  1.9700000000000610   F   F   F
  2.7860007178750168  2.7860007178750168  1.9700000000000610   F   F   F
  5.5720014357499741  2.7860007178750168  1.9700000000000610   F   F   F
  0.0000000000000000  5.5720014357499741  1.9700000000000610   F   F   F
  2.7860007178750168  5.5720014357499741  1.9700000000000610   F   F   F
  5.5720014357499741  5.5720014357499741  1.9700000000000610   F   F   F
  1.4034586312005504  1.4022013132726190  3.9388982756347888   T   T   T
  4.1596411104856035  1.3989739278062567  3.9326206962297010   T   T   T
  6.9615391174831593  1.3849924754073746  3.9084920244922006   T   T   T
  1.3985842298347559  4.1601958566740223  3.9322359566857124   T   T   T
  4.1620369588902841  4.1608799152355767  3.9280451508283249   T   T   T
  6.9607850098759760  4.1826614817023842  3.9077503566278540   T   T   T
  1.3847457303624711  6.9613321521467331  3.9084672814356090   T   T   T
  4.1823399461414628  6.9605889469133695  3.9076330146545444   T   T   T
  6.9626894541121240  6.9629788778070623  3.9036496066403492   T   T   T
  8.3447075397017976  8.3450830506821099  5.8703607393448580   T   T   T
  2.7832532782278729  8.3292910127298878  5.8552524859143364   T   T   T
  5.5737009520013947  8.3463068773037552  5.8695330910133512   T   T   T
  8.3338281800536667  2.7831515666583373  5.8543670268864068   T   T   T
  2.7758647033321360  2.7666224758626492  6.0369210762654113   T   T   T
  5.5732989825210923  2.7809547253665623  5.8478729939528220   T   T   T
  8.3461148755322085  5.5739005855482127  5.8692745798435197   T   T   T
  2.7809322560391125  5.5695846256627650  5.8476623588890808   T   T   T
  5.5726051686691642  5.5729313089351447  5.8666163990065296   T   T   T
  4.0949236339695094  2.8262548034524806  8.5963457320058936   T   T   T
  2.7057285612050599  4.1964833928492782  8.5236132678933831   T   T   T
  2.7577541946950848  2.8479855428003829  8.3402844713092232   T   T   T
