Au H  S                                 
   1.0000000000000000     
     8.8034794257725189    0.0000000000000000    0.0000000000000000
     0.0000000000000000    8.8034794257725189    0.0000000000000000
     0.0000000000000000    0.0000000000000000   21.2250000000000014
   Au   H    S 
    36     2     1
Selective dynamics
Direct
  0.1666666666666643  0.1666666666666643  0.0000000000000000   F   F   F
  0.5000000000000000  0.1666666666666643  0.0000000000000000   F   F   F
  0.8333333333333357  0.1666666666666643  0.0000000000000000   F   F   F
  0.1666666666666643  0.5000000000000000  0.0000000000000000   F   F   F
  0.5000000000000000  0.5000000000000000  0.0000000000000000   F   F   F
  0.8333333333333357  0.5000000000000000  0.0000000000000000   F   F   F
  0.1666666666666643  0.8333333333333357  0.0000000000000000   F   F   F
  0.5000000000000000  0.8333333333333357  0.0000000000000000   F   F   F
  0.8333333333333357  0.8333333333333357  0.0000000000000000   F   F   F
  0.0000000000000000  0.0000000000000000  0.0977620730270914   F   F   F
  0.3333333333333357  0.0000000000000000  0.0977620730270914   F   F   F
  0.6666666666666643  0.0000000000000000  0.0977620730270914   F   F   F
  0.0000000000000000  0.3333333333333357  0.0977620730270914   F   F   F
  0.3333333333333357  0.3333333333333357  0.0977620730270914   F   F   F
  0.6666666666666643  0.3333333333333357  0.0977620730270914   F   F   F
  0.0000000000000000  0.6666666666666643  0.0977620730270914   F   F   F
  0.3333333333333357  0.6666666666666643  0.0977620730270914   F   F   F
  0.6666666666666643  0.6666666666666643  0.0977620730270914   F   F   F
  0.1658103282832887  0.1712415634096796  0.1959700287549769   T   T   T
  0.4989123093326279  0.1685215633064306  0.1958736976415646   T   T   T
  0.8313997992613732  0.1677836981391984  0.1955175839151757   T   T   T
  0.1657819859895426  0.4956585351247705  0.1957680274881028   T   T   T
  0.4982993775356532  0.4948803807173973  0.1972238534888905   T   T   T
  0.8320243967637881  0.4948115440828036  0.1967189652673582   T   T   T
  0.1665777090548368  0.8317972638563345  0.1919283385536448   T   T   T
  0.5028348934807947  0.8354770521191307  0.1943397838910966   T   T   T
  0.8293441405137079  0.8350639511677395  0.1942905043217099   T   T   T
  0.0014265116372295  0.9944584910506633  0.2875297793065328   T   T   T
  0.3306086435361107  0.9957860757262817  0.2878912570754273   T   T   T
  0.6656819885342405  0.9935094344375933  0.2988708935277985   T   T   T
  0.9829414761906199  0.3309632738119190  0.2963933117654121   T   T   T
  0.3422686937802812  0.3337932604542458  0.2977748190090901   T   T   T
  0.6625688226061617  0.3354763673061092  0.2982356259025358   T   T   T
  0.0013402092473528  0.6705210835943037  0.2892445953530498   T   T   T
  0.3297648034265605  0.6717174168141364  0.2897965341322291   T   T   T
  0.6654947934172184  0.6690637202504733  0.2894295835773895   T   T   T
  0.6651157419831321  0.1653381337339623  0.3442251540680004   T   T   T
  0.1561195330965766  0.4708679780215086  0.3989000108111274   T   T   T
  0.1601171742925903  0.3210377964280235  0.3843655854384369   T   T   T

  0.00000000E+00  0.00000000E+00  0.00000000E+00
  0.00000000E+00  0.00000000E+00  0.00000000E+00
  0.00000000E+00  0.00000000E+00  0.00000000E+00
  0.00000000E+00  0.00000000E+00  0.00000000E+00
  0.00000000E+00  0.00000000E+00  0.00000000E+00
  0.00000000E+00  0.00000000E+00  0.00000000E+00
  0.00000000E+00  0.00000000E+00  0.00000000E+00
  0.00000000E+00  0.00000000E+00  0.00000000E+00
  0.00000000E+00  0.00000000E+00  0.00000000E+00
  0.00000000E+00  0.00000000E+00  0.00000000E+00
  0.00000000E+00  0.00000000E+00  0.00000000E+00
  0.00000000E+00  0.00000000E+00  0.00000000E+00
  0.00000000E+00  0.00000000E+00  0.00000000E+00
  0.00000000E+00  0.00000000E+00  0.00000000E+00
  0.00000000E+00  0.00000000E+00  0.00000000E+00
  0.00000000E+00  0.00000000E+00  0.00000000E+00
  0.00000000E+00  0.00000000E+00  0.00000000E+00
  0.00000000E+00  0.00000000E+00  0.00000000E+00
  0.00000000E+00  0.00000000E+00  0.00000000E+00
  0.00000000E+00  0.00000000E+00  0.00000000E+00
  0.00000000E+00  0.00000000E+00  0.00000000E+00
  0.00000000E+00  0.00000000E+00  0.00000000E+00
  0.00000000E+00  0.00000000E+00  0.00000000E+00
  0.00000000E+00  0.00000000E+00  0.00000000E+00
  0.00000000E+00  0.00000000E+00  0.00000000E+00
  0.00000000E+00  0.00000000E+00  0.00000000E+00
  0.00000000E+00  0.00000000E+00  0.00000000E+00
  0.00000000E+00  0.00000000E+00  0.00000000E+00
  0.00000000E+00  0.00000000E+00  0.00000000E+00
  0.00000000E+00  0.00000000E+00  0.00000000E+00
  0.00000000E+00  0.00000000E+00  0.00000000E+00
  0.00000000E+00  0.00000000E+00  0.00000000E+00
  0.00000000E+00  0.00000000E+00  0.00000000E+00
  0.00000000E+00  0.00000000E+00  0.00000000E+00
  0.00000000E+00  0.00000000E+00  0.00000000E+00
  0.00000000E+00  0.00000000E+00  0.00000000E+00
  0.00000000E+00  0.00000000E+00  0.00000000E+00
  0.00000000E+00  0.00000000E+00  0.00000000E+00
  0.00000000E+00  0.00000000E+00  0.00000000E+00
