Au H  S                                 
   1.0000000000000000     
     8.8034794257725189    0.0000000000000000    0.0000000000000000
     0.0000000000000000    8.8034794257725189    0.0000000000000000
     0.0000000000000000    0.0000000000000000   21.2250000000000014
   Au   H    S 
    36     2     1
Selective dynamics
Direct
  0.1666666666666643  0.1666666666666643  0.0000000000000000   F   F   F
  0.5000000000000000  0.1666666666666643  0.0000000000000000   F   F   F
  0.8333333333333357  0.1666666666666643  0.0000000000000000   F   F   F
  0.1666666666666643  0.5000000000000000  0.0000000000000000   F   F   F
  0.5000000000000000  0.5000000000000000  0.0000000000000000   F   F   F
  0.8333333333333357  0.5000000000000000  0.0000000000000000   F   F   F
  0.1666666666666643  0.8333333333333357  0.0000000000000000   F   F   F
  0.5000000000000000  0.8333333333333357  0.0000000000000000   F   F   F
  0.8333333333333357  0.8333333333333357  0.0000000000000000   F   F   F
  0.0000000000000000  0.0000000000000000  0.0977620730270914   F   F   F
  0.3333333333333357  0.0000000000000000  0.0977620730270914   F   F   F
  0.6666666666666643  0.0000000000000000  0.0977620730270914   F   F   F
  0.0000000000000000  0.3333333333333357  0.0977620730270914   F   F   F
  0.3333333333333357  0.3333333333333357  0.0977620730270914   F   F   F
  0.6666666666666643  0.3333333333333357  0.0977620730270914   F   F   F
  0.0000000000000000  0.6666666666666643  0.0977620730270914   F   F   F
  0.3333333333333357  0.6666666666666643  0.0977620730270914   F   F   F
  0.6666666666666643  0.6666666666666643  0.0977620730270914   F   F   F
  0.1671228654179980  0.1671241106740120  0.1958830053106911   T   T   T
  0.4959651214824112  0.1673116648877551  0.1962760050706497   T   T   T
  0.8315921344895473  0.1653887593405487  0.1938774470841961   T   T   T
  0.1673107512167336  0.4959659862522632  0.1962761038033890   T   T   T
  0.4960384503843340  0.4960382612288168  0.1963966193656809   T   T   T
  0.8317347019258940  0.5006610974129556  0.1941039689053898   T   T   T
  0.1653870386081049  0.8315930236526723  0.1938772208939732   T   T   T
  0.5006603438507151  0.8317359480787565  0.1941040529278725   T   T   T
  0.8328320102168776  0.8328333274459216  0.1949056246757308   T   T   T
  0.9994942209201461  0.9994959532329794  0.2913026196927558   T   T   T
  0.3321931852437705  0.9895177742310375  0.2920024170870092   T   T   T
  0.6656741181535850  0.0000484665607498  0.2914666535876878   T   T   T
  0.9895159814191575  0.3321971345737502  0.2920021344849046   T   T   T
  0.3241830300048533  0.3241832141624198  0.2972172590897176   T   T   T
  0.6675203532012430  0.3320268563078662  0.2920250871807958   T   T   T
  0.0000482681994496  0.6656738736012444  0.2914673067229158   T   T   T
  0.3320258015784875  0.6675215994933915  0.2920254258075861   T   T   T
  0.6648945467453631  0.6648953713441038  0.2914586457280002   T   T   T
  0.4899597346379994  0.3329940930997110  0.4199614505621777   T   T   T
  0.3329963655664398  0.4899594885135006  0.4199607200326684   T   T   T
  0.3361621879987174  0.3361617597683433  0.4174543449827850   T   T   T

  0.00000000E+00  0.00000000E+00  0.00000000E+00
  0.00000000E+00  0.00000000E+00  0.00000000E+00
  0.00000000E+00  0.00000000E+00  0.00000000E+00
  0.00000000E+00  0.00000000E+00  0.00000000E+00
  0.00000000E+00  0.00000000E+00  0.00000000E+00
  0.00000000E+00  0.00000000E+00  0.00000000E+00
  0.00000000E+00  0.00000000E+00  0.00000000E+00
  0.00000000E+00  0.00000000E+00  0.00000000E+00
  0.00000000E+00  0.00000000E+00  0.00000000E+00
  0.00000000E+00  0.00000000E+00  0.00000000E+00
  0.00000000E+00  0.00000000E+00  0.00000000E+00
  0.00000000E+00  0.00000000E+00  0.00000000E+00
  0.00000000E+00  0.00000000E+00  0.00000000E+00
  0.00000000E+00  0.00000000E+00  0.00000000E+00
  0.00000000E+00  0.00000000E+00  0.00000000E+00
  0.00000000E+00  0.00000000E+00  0.00000000E+00
  0.00000000E+00  0.00000000E+00  0.00000000E+00
  0.00000000E+00  0.00000000E+00  0.00000000E+00
  0.00000000E+00  0.00000000E+00  0.00000000E+00
  0.00000000E+00  0.00000000E+00  0.00000000E+00
  0.00000000E+00  0.00000000E+00  0.00000000E+00
  0.00000000E+00  0.00000000E+00  0.00000000E+00
  0.00000000E+00  0.00000000E+00  0.00000000E+00
  0.00000000E+00  0.00000000E+00  0.00000000E+00
  0.00000000E+00  0.00000000E+00  0.00000000E+00
  0.00000000E+00  0.00000000E+00  0.00000000E+00
  0.00000000E+00  0.00000000E+00  0.00000000E+00
  0.00000000E+00  0.00000000E+00  0.00000000E+00
  0.00000000E+00  0.00000000E+00  0.00000000E+00
  0.00000000E+00  0.00000000E+00  0.00000000E+00
  0.00000000E+00  0.00000000E+00  0.00000000E+00
  0.00000000E+00  0.00000000E+00  0.00000000E+00
  0.00000000E+00  0.00000000E+00  0.00000000E+00
  0.00000000E+00  0.00000000E+00  0.00000000E+00
  0.00000000E+00  0.00000000E+00  0.00000000E+00
  0.00000000E+00  0.00000000E+00  0.00000000E+00
  0.00000000E+00  0.00000000E+00  0.00000000E+00
  0.00000000E+00  0.00000000E+00  0.00000000E+00
  0.00000000E+00  0.00000000E+00  0.00000000E+00
