Pt H  S                                 
   1.0000000000000000     
     8.4216417639317811    0.0000000000000000    0.0000000000000000
     0.0000000000000000    8.4216417639317811    0.0000000000000000
     0.0000000000000000    0.0000000000000000   20.9549999999999983
   Pt   H    S 
    36     2     1
Selective dynamics
Direct
  0.1666666666666643  0.1666666666666643  0.0000000000000000   F   F   F
  0.5000000000000000  0.1666666666666643  0.0000000000000000   F   F   F
  0.8333333333333357  0.1666666666666643  0.0000000000000000   F   F   F
  0.1666666666666643  0.5000000000000000  0.0000000000000000   F   F   F
  0.5000000000000000  0.5000000000000000  0.0000000000000000   F   F   F
  0.8333333333333357  0.5000000000000000  0.0000000000000000   F   F   F
  0.1666666666666643  0.8333333333333357  0.0000000000000000   F   F   F
  0.5000000000000000  0.8333333333333357  0.0000000000000000   F   F   F
  0.8333333333333357  0.8333333333333357  0.0000000000000000   F   F   F
  0.0000000000000000  0.0000000000000000  0.0947267955141982   F   F   F
  0.3333333333333357  0.0000000000000000  0.0947267955141982   F   F   F
  0.6666666666666643  0.0000000000000000  0.0947267955141982   F   F   F
  0.0000000000000000  0.3333333333333357  0.0947267955141982   F   F   F
  0.3333333333333357  0.3333333333333357  0.0947267955141982   F   F   F
  0.6666666666666643  0.3333333333333357  0.0947267955141982   F   F   F
  0.0000000000000000  0.6666666666666643  0.0947267955141982   F   F   F
  0.3333333333333357  0.6666666666666643  0.0947267955141982   F   F   F
  0.6666666666666643  0.6666666666666643  0.0947267955141982   F   F   F
  0.1660164618482951  0.1699167868581125  0.1901103486158223   T   T   T
  0.4975860253512235  0.1687087140477069  0.1892011952341846   T   T   T
  0.8338706752231175  0.1685307086445559  0.1890462438000303   T   T   T
  0.1660167926045552  0.4960279022087024  0.1898210344192199   T   T   T
  0.4983938770063361  0.4962222475412813  0.1892360732438073   T   T   T
  0.8333066006462019  0.4962002980958128  0.1890891267197344   T   T   T
  0.1662001365748330  0.8331091106778307  0.1864818174405776   T   T   T
  0.5008899746477018  0.8334579590606196  0.1870698080358273   T   T   T
  0.8314252759169413  0.8332876424125384  0.1870561477831129   T   T   T
  0.9997155212450334  0.9955793939723711  0.2792193807407927   T   T   T
  0.3316958524099656  0.9959318517132436  0.2793033613752105   T   T   T
  0.6656796791435395  0.9967400068609642  0.2818526950621293   T   T   T
  0.9844440338150720  0.3354587370161875  0.2879434925840152   T   T   T
  0.3450478828346946  0.3369583868841456  0.2883911021990056   T   T   T
  0.6649594237911193  0.3334576508119992  0.2843792020932958   T   T   T
  0.9984980022832639  0.6689760191917512  0.2792137457863028   T   T   T
  0.3329931991771352  0.6694820282633550  0.2793099051627957   T   T   T
  0.6658154490651624  0.6666495893555269  0.2796025144558529   T   T   T
  0.6650107897288718  0.1632999041227814  0.3326478002344536   T   T   T
  0.1609440783134849  0.4849681112249066  0.3878913331492976   T   T   T
  0.1638916151492224  0.3286195961962025  0.3700735742610130   T   T   T

  0.00000000E+00  0.00000000E+00  0.00000000E+00
  0.00000000E+00  0.00000000E+00  0.00000000E+00
  0.00000000E+00  0.00000000E+00  0.00000000E+00
  0.00000000E+00  0.00000000E+00  0.00000000E+00
  0.00000000E+00  0.00000000E+00  0.00000000E+00
  0.00000000E+00  0.00000000E+00  0.00000000E+00
  0.00000000E+00  0.00000000E+00  0.00000000E+00
  0.00000000E+00  0.00000000E+00  0.00000000E+00
  0.00000000E+00  0.00000000E+00  0.00000000E+00
  0.00000000E+00  0.00000000E+00  0.00000000E+00
  0.00000000E+00  0.00000000E+00  0.00000000E+00
  0.00000000E+00  0.00000000E+00  0.00000000E+00
  0.00000000E+00  0.00000000E+00  0.00000000E+00
  0.00000000E+00  0.00000000E+00  0.00000000E+00
  0.00000000E+00  0.00000000E+00  0.00000000E+00
  0.00000000E+00  0.00000000E+00  0.00000000E+00
  0.00000000E+00  0.00000000E+00  0.00000000E+00
  0.00000000E+00  0.00000000E+00  0.00000000E+00
  0.00000000E+00  0.00000000E+00  0.00000000E+00
  0.00000000E+00  0.00000000E+00  0.00000000E+00
  0.00000000E+00  0.00000000E+00  0.00000000E+00
  0.00000000E+00  0.00000000E+00  0.00000000E+00
  0.00000000E+00  0.00000000E+00  0.00000000E+00
  0.00000000E+00  0.00000000E+00  0.00000000E+00
  0.00000000E+00  0.00000000E+00  0.00000000E+00
  0.00000000E+00  0.00000000E+00  0.00000000E+00
  0.00000000E+00  0.00000000E+00  0.00000000E+00
  0.00000000E+00  0.00000000E+00  0.00000000E+00
  0.00000000E+00  0.00000000E+00  0.00000000E+00
  0.00000000E+00  0.00000000E+00  0.00000000E+00
  0.00000000E+00  0.00000000E+00  0.00000000E+00
  0.00000000E+00  0.00000000E+00  0.00000000E+00
  0.00000000E+00  0.00000000E+00  0.00000000E+00
  0.00000000E+00  0.00000000E+00  0.00000000E+00
  0.00000000E+00  0.00000000E+00  0.00000000E+00
  0.00000000E+00  0.00000000E+00  0.00000000E+00
  0.00000000E+00  0.00000000E+00  0.00000000E+00
  0.00000000E+00  0.00000000E+00  0.00000000E+00
  0.00000000E+00  0.00000000E+00  0.00000000E+00
