Pt H  S                                 
   1.0000000000000000     
     8.4216417639317811    0.0000000000000000    0.0000000000000000
     0.0000000000000000    8.4216417639317811    0.0000000000000000
     0.0000000000000000    0.0000000000000000   20.9549999999999983
   Pt   H    S 
    36     2     1
Selective dynamics
Direct
  0.1666666666666643  0.1666666666666643  0.0000000000000000   F   F   F
  0.5000000000000000  0.1666666666666643  0.0000000000000000   F   F   F
  0.8333333333333357  0.1666666666666643  0.0000000000000000   F   F   F
  0.1666666666666643  0.5000000000000000  0.0000000000000000   F   F   F
  0.5000000000000000  0.5000000000000000  0.0000000000000000   F   F   F
  0.8333333333333357  0.5000000000000000  0.0000000000000000   F   F   F
  0.1666666666666643  0.8333333333333357  0.0000000000000000   F   F   F
  0.5000000000000000  0.8333333333333357  0.0000000000000000   F   F   F
  0.8333333333333357  0.8333333333333357  0.0000000000000000   F   F   F
  0.0000000000000000  0.0000000000000000  0.0947267955141982   F   F   F
  0.3333333333333357  0.0000000000000000  0.0947267955141982   F   F   F
  0.6666666666666643  0.0000000000000000  0.0947267955141982   F   F   F
  0.0000000000000000  0.3333333333333357  0.0947267955141982   F   F   F
  0.3333333333333357  0.3333333333333357  0.0947267955141982   F   F   F
  0.6666666666666643  0.3333333333333357  0.0947267955141982   F   F   F
  0.0000000000000000  0.6666666666666643  0.0947267955141982   F   F   F
  0.3333333333333357  0.6666666666666643  0.0947267955141982   F   F   F
  0.6666666666666643  0.6666666666666643  0.0947267955141982   F   F   F
  0.1691251994915429  0.1691275346948044  0.1900491782645765   T   T   T
  0.4967731322961489  0.1683804504176778  0.1897048423963363   T   T   T
  0.8331677724962289  0.1660514531881619  0.1874463230083870   T   T   T
  0.1683813792189382  0.4967735865784156  0.1897055036740483   T   T   T
  0.4971113331660641  0.4971079715220065  0.1893621326019243   T   T   T
  0.8330404357100473  0.4998820340498573  0.1874201313676546   T   T   T
  0.1660571541577204  0.8331701839096934  0.1874447534542688   T   T   T
  0.4998947721484844  0.8330459017925266  0.1874201681797338   T   T   T
  0.8329973577208694  0.8330060134596750  0.1868938224089480   T   T   T
  0.9980778254880567  0.9980744475693364  0.2800126803795829   T   T   T
  0.3329499121357803  0.9955826700661408  0.2803066734557271   T   T   T
  0.6670972124521667  0.9983107504711428  0.2799391013319450   T   T   T
  0.9955791254785598  0.3329476309848929  0.2803139722032517   T   T   T
  0.3300865673219203  0.3300815507665658  0.2911958743979574   T   T   T
  0.6677832590384111  0.3326500728478587  0.2798199977663143   T   T   T
  0.9983047547004492  0.6670931138800353  0.2799388775659041   T   T   T
  0.3326538579493450  0.6677781396194185  0.2798195898242731   T   T   T
  0.6664461150166395  0.6664491019100243  0.2797998024110639   T   T   T
  0.4992778031994327  0.3349828313254470  0.4114440251654385   T   T   T
  0.3349825159848072  0.4992796349135704  0.4114415330674002   T   T   T
  0.3398159064435914  0.3398139168891988  0.4000450582057077   T   T   T

  0.00000000E+00  0.00000000E+00  0.00000000E+00
  0.00000000E+00  0.00000000E+00  0.00000000E+00
  0.00000000E+00  0.00000000E+00  0.00000000E+00
  0.00000000E+00  0.00000000E+00  0.00000000E+00
  0.00000000E+00  0.00000000E+00  0.00000000E+00
  0.00000000E+00  0.00000000E+00  0.00000000E+00
  0.00000000E+00  0.00000000E+00  0.00000000E+00
  0.00000000E+00  0.00000000E+00  0.00000000E+00
  0.00000000E+00  0.00000000E+00  0.00000000E+00
  0.00000000E+00  0.00000000E+00  0.00000000E+00
  0.00000000E+00  0.00000000E+00  0.00000000E+00
  0.00000000E+00  0.00000000E+00  0.00000000E+00
  0.00000000E+00  0.00000000E+00  0.00000000E+00
  0.00000000E+00  0.00000000E+00  0.00000000E+00
  0.00000000E+00  0.00000000E+00  0.00000000E+00
  0.00000000E+00  0.00000000E+00  0.00000000E+00
  0.00000000E+00  0.00000000E+00  0.00000000E+00
  0.00000000E+00  0.00000000E+00  0.00000000E+00
  0.00000000E+00  0.00000000E+00  0.00000000E+00
  0.00000000E+00  0.00000000E+00  0.00000000E+00
  0.00000000E+00  0.00000000E+00  0.00000000E+00
  0.00000000E+00  0.00000000E+00  0.00000000E+00
  0.00000000E+00  0.00000000E+00  0.00000000E+00
  0.00000000E+00  0.00000000E+00  0.00000000E+00
  0.00000000E+00  0.00000000E+00  0.00000000E+00
  0.00000000E+00  0.00000000E+00  0.00000000E+00
  0.00000000E+00  0.00000000E+00  0.00000000E+00
  0.00000000E+00  0.00000000E+00  0.00000000E+00
  0.00000000E+00  0.00000000E+00  0.00000000E+00
  0.00000000E+00  0.00000000E+00  0.00000000E+00
  0.00000000E+00  0.00000000E+00  0.00000000E+00
  0.00000000E+00  0.00000000E+00  0.00000000E+00
  0.00000000E+00  0.00000000E+00  0.00000000E+00
  0.00000000E+00  0.00000000E+00  0.00000000E+00
  0.00000000E+00  0.00000000E+00  0.00000000E+00
  0.00000000E+00  0.00000000E+00  0.00000000E+00
  0.00000000E+00  0.00000000E+00  0.00000000E+00
  0.00000000E+00  0.00000000E+00  0.00000000E+00
  0.00000000E+00  0.00000000E+00  0.00000000E+00
