Pd H  S                                 
   1.0000000000000000     
     8.3580021536249909    0.0000000000000000    0.0000000000000000
     0.0000000000000000    8.3580021536249909    0.0000000000000000
     0.0000000000000000    0.0000000000000000   19.9100000000000001
   Pd   H    S 
    36     2     1
Selective dynamics
Direct
  0.1666666666666643  0.1666666666666643  0.0000000000000000   F   F   F
  0.5000000000000000  0.1666666666666643  0.0000000000000000   F   F   F
  0.8333333333333357  0.1666666666666643  0.0000000000000000   F   F   F
  0.1666666666666643  0.5000000000000000  0.0000000000000000   F   F   F
  0.5000000000000000  0.5000000000000000  0.0000000000000000   F   F   F
  0.8333333333333357  0.5000000000000000  0.0000000000000000   F   F   F
  0.1666666666666643  0.8333333333333357  0.0000000000000000   F   F   F
  0.5000000000000000  0.8333333333333357  0.0000000000000000   F   F   F
  0.8333333333333357  0.8333333333333357  0.0000000000000000   F   F   F
  0.0000000000000000  0.0000000000000000  0.0989452536413893   F   F   F
  0.3333333333333357  0.0000000000000000  0.0989452536413893   F   F   F
  0.6666666666666643  0.0000000000000000  0.0989452536413893   F   F   F
  0.0000000000000000  0.3333333333333357  0.0989452536413893   F   F   F
  0.3333333333333357  0.3333333333333357  0.0989452536413893   F   F   F
  0.6666666666666643  0.3333333333333357  0.0989452536413893   F   F   F
  0.0000000000000000  0.6666666666666643  0.0989452536413893   F   F   F
  0.3333333333333357  0.6666666666666643  0.0989452536413893   F   F   F
  0.6666666666666643  0.6666666666666643  0.0989452536413893   F   F   F
  0.1668895863746513  0.1677914866408372  0.1980257504014915   T   T   T
  0.4996750713389133  0.1687835946882217  0.1978141557028508   T   T   T
  0.8343334253690031  0.1680037154619143  0.1979451554334091   T   T   T
  0.1669224612802367  0.4982028496006166  0.1981413088106549   T   T   T
  0.4993383139353185  0.4983631894062555  0.1975198741533646   T   T   T
  0.8336094445633293  0.4978752270984259  0.1972259751813468   T   T   T
  0.1666727205773313  0.8333721203292725  0.1961477956760902   T   T   T
  0.5004603912094652  0.8337913922185436  0.1964943005972088   T   T   T
  0.8328040265710257  0.8336955071740917  0.1963502195611682   T   T   T
  0.0007632571778800  0.9961865532805874  0.2950640294483904   T   T   T
  0.3329691560956505  0.9968204387895838  0.2947484300781511   T   T   T
  0.6667179645290986  0.9987596976506907  0.2962280984625068   T   T   T
  0.9914405418773242  0.3346136038427261  0.2999406319590534   T   T   T
  0.3426113542362756  0.3337779293062155  0.3006473117782775   T   T   T
  0.6670697832987855  0.3341910574206821  0.2982065059869896   T   T   T
  0.9987877897244175  0.6689542443879972  0.2944534912590200   T   T   T
  0.3337305101347141  0.6690108103626429  0.2947621298389222   T   T   T
  0.6666249005188618  0.6673282937030436  0.2946089785327288   T   T   T
  0.6657917978685433  0.1647957815054042  0.3462902662288130   T   T   T
  0.1690737458511862  0.5055578820702351  0.3995148376599431   T   T   T
  0.1661178362474871  0.3437454200860230  0.3880786649074537   T   T   T

  0.00000000E+00  0.00000000E+00  0.00000000E+00
  0.00000000E+00  0.00000000E+00  0.00000000E+00
  0.00000000E+00  0.00000000E+00  0.00000000E+00
  0.00000000E+00  0.00000000E+00  0.00000000E+00
  0.00000000E+00  0.00000000E+00  0.00000000E+00
  0.00000000E+00  0.00000000E+00  0.00000000E+00
  0.00000000E+00  0.00000000E+00  0.00000000E+00
  0.00000000E+00  0.00000000E+00  0.00000000E+00
  0.00000000E+00  0.00000000E+00  0.00000000E+00
  0.00000000E+00  0.00000000E+00  0.00000000E+00
  0.00000000E+00  0.00000000E+00  0.00000000E+00
  0.00000000E+00  0.00000000E+00  0.00000000E+00
  0.00000000E+00  0.00000000E+00  0.00000000E+00
  0.00000000E+00  0.00000000E+00  0.00000000E+00
  0.00000000E+00  0.00000000E+00  0.00000000E+00
  0.00000000E+00  0.00000000E+00  0.00000000E+00
  0.00000000E+00  0.00000000E+00  0.00000000E+00
  0.00000000E+00  0.00000000E+00  0.00000000E+00
  0.00000000E+00  0.00000000E+00  0.00000000E+00
  0.00000000E+00  0.00000000E+00  0.00000000E+00
  0.00000000E+00  0.00000000E+00  0.00000000E+00
  0.00000000E+00  0.00000000E+00  0.00000000E+00
  0.00000000E+00  0.00000000E+00  0.00000000E+00
  0.00000000E+00  0.00000000E+00  0.00000000E+00
  0.00000000E+00  0.00000000E+00  0.00000000E+00
  0.00000000E+00  0.00000000E+00  0.00000000E+00
  0.00000000E+00  0.00000000E+00  0.00000000E+00
  0.00000000E+00  0.00000000E+00  0.00000000E+00
  0.00000000E+00  0.00000000E+00  0.00000000E+00
  0.00000000E+00  0.00000000E+00  0.00000000E+00
  0.00000000E+00  0.00000000E+00  0.00000000E+00
  0.00000000E+00  0.00000000E+00  0.00000000E+00
  0.00000000E+00  0.00000000E+00  0.00000000E+00
  0.00000000E+00  0.00000000E+00  0.00000000E+00
  0.00000000E+00  0.00000000E+00  0.00000000E+00
  0.00000000E+00  0.00000000E+00  0.00000000E+00
  0.00000000E+00  0.00000000E+00  0.00000000E+00
  0.00000000E+00  0.00000000E+00  0.00000000E+00
  0.00000000E+00  0.00000000E+00  0.00000000E+00
