INCAR created by Atomic Simulation Environment
 ENCUT = 400.000000
 SIGMA = 0.100000
 EDIFF = 1.00e-04
 EDIFFG = -3.00e-02
 ALGO = Fast
 GGA = PE
 PREC = Accurate
 IBRION = -1
 ICHARG = 2
 IDIPOL = 3
 ISMEAR = 1
 ISYM = 0
 NPAR = 2
 LCHARG = .FALSE.
 LDIPOL = .TRUE.
 LWAVE = .FALSE.
 LREAL = Auto
