Ag H  S                                 
   1.0000000000000000     
     8.7928728240547187    0.0000000000000000    0.0000000000000000
     0.0000000000000000    8.7928728240547187    0.0000000000000000
     0.0000000000000000    0.0000000000000000   21.2175000000000011
   Ag   H    S 
    36     2     1
Selective dynamics
Direct
  0.1666666666666643  0.1666666666666643  0.0000000000000000   F   F   F
  0.5000000000000000  0.1666666666666643  0.0000000000000000   F   F   F
  0.8333333333333357  0.1666666666666643  0.0000000000000000   F   F   F
  0.1666666666666643  0.5000000000000000  0.0000000000000000   F   F   F
  0.5000000000000000  0.5000000000000000  0.0000000000000000   F   F   F
  0.8333333333333357  0.5000000000000000  0.0000000000000000   F   F   F
  0.1666666666666643  0.8333333333333357  0.0000000000000000   F   F   F
  0.5000000000000000  0.8333333333333357  0.0000000000000000   F   F   F
  0.8333333333333357  0.8333333333333357  0.0000000000000000   F   F   F
  0.0000000000000000  0.0000000000000000  0.0976788028749880   F   F   F
  0.3333333333333357  0.0000000000000000  0.0976788028749880   F   F   F
  0.6666666666666643  0.0000000000000000  0.0976788028749880   F   F   F
  0.0000000000000000  0.3333333333333357  0.0976788028749880   F   F   F
  0.3333333333333357  0.3333333333333357  0.0976788028749880   F   F   F
  0.6666666666666643  0.3333333333333357  0.0976788028749880   F   F   F
  0.0000000000000000  0.6666666666666643  0.0976788028749880   F   F   F
  0.3333333333333357  0.6666666666666643  0.0976788028749880   F   F   F
  0.6666666666666643  0.6666666666666643  0.0976788028749880   F   F   F
  0.1669755338956644  0.1671452522257394  0.1963534858986723   T   T   T
  0.4968130393145866  0.1671360176929268  0.1962674612281780   T   T   T
  0.8321021818381964  0.1658222320350043  0.1948819505408007   T   T   T
  0.1669537890947456  0.4970236666003213  0.1962502084320706   T   T   T
  0.4971450191312879  0.4973231730067674  0.1960814822569709   T   T   T
  0.8320965851183119  0.5003522539669722  0.1949197181951602   T   T   T
  0.1657986422480745  0.8322919450054419  0.1948709846653641   T   T   T
  0.5003417984705952  0.8322790852390126  0.1949035771809648   T   T   T
  0.8331430026393895  0.8331916594662901  0.1951789286919095   T   T   T
  0.9999555163600188  0.0000264185637655  0.2917792292122139   T   T   T
  0.3327371979926807  0.9938508714802904  0.2924097822213502   T   T   T
  0.6653257478681394  0.0003341119368309  0.2919028811715936   T   T   T
  0.9933078634801604  0.3328035754733256  0.2923805703790309   T   T   T
  0.3292473231316906  0.3295564683866998  0.2973785732303568   T   T   T
  0.6664754515552327  0.3325645915467545  0.2919328473407465   T   T   T
  0.0002564566169409  0.6654537380034461  0.2919052077346016   T   T   T
  0.3325343289793136  0.6671435421697617  0.2918787765153620   T   T   T
  0.6653422116206869  0.6654535948168450  0.2917622617995496   T   T   T
  0.4907962039745002  0.3401128987310722  0.4323209363586240   T   T   T
  0.3376058610347640  0.4987230037491936  0.4294814384636577   T   T   T
  0.3375164326440635  0.3449458847403276  0.4275877232577841   T   T   T

  0.00000000E+00  0.00000000E+00  0.00000000E+00
  0.00000000E+00  0.00000000E+00  0.00000000E+00
  0.00000000E+00  0.00000000E+00  0.00000000E+00
  0.00000000E+00  0.00000000E+00  0.00000000E+00
  0.00000000E+00  0.00000000E+00  0.00000000E+00
  0.00000000E+00  0.00000000E+00  0.00000000E+00
  0.00000000E+00  0.00000000E+00  0.00000000E+00
  0.00000000E+00  0.00000000E+00  0.00000000E+00
  0.00000000E+00  0.00000000E+00  0.00000000E+00
  0.00000000E+00  0.00000000E+00  0.00000000E+00
  0.00000000E+00  0.00000000E+00  0.00000000E+00
  0.00000000E+00  0.00000000E+00  0.00000000E+00
  0.00000000E+00  0.00000000E+00  0.00000000E+00
  0.00000000E+00  0.00000000E+00  0.00000000E+00
  0.00000000E+00  0.00000000E+00  0.00000000E+00
  0.00000000E+00  0.00000000E+00  0.00000000E+00
  0.00000000E+00  0.00000000E+00  0.00000000E+00
  0.00000000E+00  0.00000000E+00  0.00000000E+00
  0.00000000E+00  0.00000000E+00  0.00000000E+00
  0.00000000E+00  0.00000000E+00  0.00000000E+00
  0.00000000E+00  0.00000000E+00  0.00000000E+00
  0.00000000E+00  0.00000000E+00  0.00000000E+00
  0.00000000E+00  0.00000000E+00  0.00000000E+00
  0.00000000E+00  0.00000000E+00  0.00000000E+00
  0.00000000E+00  0.00000000E+00  0.00000000E+00
  0.00000000E+00  0.00000000E+00  0.00000000E+00
  0.00000000E+00  0.00000000E+00  0.00000000E+00
  0.00000000E+00  0.00000000E+00  0.00000000E+00
  0.00000000E+00  0.00000000E+00  0.00000000E+00
  0.00000000E+00  0.00000000E+00  0.00000000E+00
  0.00000000E+00  0.00000000E+00  0.00000000E+00
  0.00000000E+00  0.00000000E+00  0.00000000E+00
  0.00000000E+00  0.00000000E+00  0.00000000E+00
  0.00000000E+00  0.00000000E+00  0.00000000E+00
  0.00000000E+00  0.00000000E+00  0.00000000E+00
  0.00000000E+00  0.00000000E+00  0.00000000E+00
  0.00000000E+00  0.00000000E+00  0.00000000E+00
  0.00000000E+00  0.00000000E+00  0.00000000E+00
  0.00000000E+00  0.00000000E+00  0.00000000E+00
