Ag H  S                                 
   1.0000000000000000     
     8.7928728240547187    0.0000000000000000    0.0000000000000000
     0.0000000000000000    8.7928728240547187    0.0000000000000000
     0.0000000000000000    0.0000000000000000   21.2175000000000011
   Ag   H    S 
    36     2     1
Selective dynamics
Direct
  0.1666666666666643  0.1666666666666643  0.0000000000000000   F   F   F
  0.5000000000000000  0.1666666666666643  0.0000000000000000   F   F   F
  0.8333333333333357  0.1666666666666643  0.0000000000000000   F   F   F
  0.1666666666666643  0.5000000000000000  0.0000000000000000   F   F   F
  0.5000000000000000  0.5000000000000000  0.0000000000000000   F   F   F
  0.8333333333333357  0.5000000000000000  0.0000000000000000   F   F   F
  0.1666666666666643  0.8333333333333357  0.0000000000000000   F   F   F
  0.5000000000000000  0.8333333333333357  0.0000000000000000   F   F   F
  0.8333333333333357  0.8333333333333357  0.0000000000000000   F   F   F
  0.0000000000000000  0.0000000000000000  0.0976788028749880   F   F   F
  0.3333333333333357  0.0000000000000000  0.0976788028749880   F   F   F
  0.6666666666666643  0.0000000000000000  0.0976788028749880   F   F   F
  0.0000000000000000  0.3333333333333357  0.0976788028749880   F   F   F
  0.3333333333333357  0.3333333333333357  0.0976788028749880   F   F   F
  0.6666666666666643  0.3333333333333357  0.0976788028749880   F   F   F
  0.0000000000000000  0.6666666666666643  0.0976788028749880   F   F   F
  0.3333333333333357  0.6666666666666643  0.0976788028749880   F   F   F
  0.6666666666666643  0.6666666666666643  0.0976788028749880   F   F   F
  0.1662554264864980  0.1688946982242342  0.1952602423341830   T   T   T
  0.4980989221877540  0.1685311064108258  0.1952081357134693   T   T   T
  0.8338950190057213  0.1681663063139157  0.1950787675662949   T   T   T
  0.1662114222303149  0.4975708140285730  0.1954131976270224   T   T   T
  0.4996237132033935  0.4956125783106723  0.1968248116087320   T   T   T
  0.8322993823915049  0.4954540777147514  0.1966355579416985   T   T   T
  0.1666561832604558  0.8316923867259419  0.1934915065549619   T   T   T
  0.5031188736698855  0.8356299091534131  0.1951390778208960   T   T   T
  0.8299854639852337  0.8353883126052394  0.1951271655313603   T   T   T
  0.0013457359857549  0.9954384502836005  0.2883453085210670   T   T   T
  0.3317767341984791  0.9961105754109146  0.2884479641544689   T   T   T
  0.6665492692126989  0.0016361040484612  0.2962921750357452   T   T   T
  0.9934080122347070  0.3323204673134096  0.2955006102316006   T   T   T
  0.3352629421869393  0.3337466748968195  0.2962005532347511   T   T   T
  0.6646446765067592  0.3309823555260883  0.2957718883791888   T   T   T
  0.9997125821626411  0.6689251721859422  0.2893306320527526   T   T   T
  0.3329939404472678  0.6696157039429382  0.2895416709613015   T   T   T
  0.6663272021241107  0.6686272095551195  0.2895642183290883   T   T   T
  0.6667257037722074  0.1675013264484943  0.3489464367763820   T   T   T
  0.1592224051300224  0.4797859400969300  0.4030463245414739   T   T   T
  0.1624142224268206  0.3286766610341550  0.3912842198793623   T   T   T

  0.00000000E+00  0.00000000E+00  0.00000000E+00
  0.00000000E+00  0.00000000E+00  0.00000000E+00
  0.00000000E+00  0.00000000E+00  0.00000000E+00
  0.00000000E+00  0.00000000E+00  0.00000000E+00
  0.00000000E+00  0.00000000E+00  0.00000000E+00
  0.00000000E+00  0.00000000E+00  0.00000000E+00
  0.00000000E+00  0.00000000E+00  0.00000000E+00
  0.00000000E+00  0.00000000E+00  0.00000000E+00
  0.00000000E+00  0.00000000E+00  0.00000000E+00
  0.00000000E+00  0.00000000E+00  0.00000000E+00
  0.00000000E+00  0.00000000E+00  0.00000000E+00
  0.00000000E+00  0.00000000E+00  0.00000000E+00
  0.00000000E+00  0.00000000E+00  0.00000000E+00
  0.00000000E+00  0.00000000E+00  0.00000000E+00
  0.00000000E+00  0.00000000E+00  0.00000000E+00
  0.00000000E+00  0.00000000E+00  0.00000000E+00
  0.00000000E+00  0.00000000E+00  0.00000000E+00
  0.00000000E+00  0.00000000E+00  0.00000000E+00
  0.00000000E+00  0.00000000E+00  0.00000000E+00
  0.00000000E+00  0.00000000E+00  0.00000000E+00
  0.00000000E+00  0.00000000E+00  0.00000000E+00
  0.00000000E+00  0.00000000E+00  0.00000000E+00
  0.00000000E+00  0.00000000E+00  0.00000000E+00
  0.00000000E+00  0.00000000E+00  0.00000000E+00
  0.00000000E+00  0.00000000E+00  0.00000000E+00
  0.00000000E+00  0.00000000E+00  0.00000000E+00
  0.00000000E+00  0.00000000E+00  0.00000000E+00
  0.00000000E+00  0.00000000E+00  0.00000000E+00
  0.00000000E+00  0.00000000E+00  0.00000000E+00
  0.00000000E+00  0.00000000E+00  0.00000000E+00
  0.00000000E+00  0.00000000E+00  0.00000000E+00
  0.00000000E+00  0.00000000E+00  0.00000000E+00
  0.00000000E+00  0.00000000E+00  0.00000000E+00
  0.00000000E+00  0.00000000E+00  0.00000000E+00
  0.00000000E+00  0.00000000E+00  0.00000000E+00
  0.00000000E+00  0.00000000E+00  0.00000000E+00
  0.00000000E+00  0.00000000E+00  0.00000000E+00
  0.00000000E+00  0.00000000E+00  0.00000000E+00
  0.00000000E+00  0.00000000E+00  0.00000000E+00
