Au O                                    
   1.0000000000000000     
     8.8034794257725189    0.0000000000000000    0.0000000000000000
     4.4017397128862594    7.6240368244126415    0.0000000000000000
     0.0000000000000000    0.0000000000000000   23.1880108514108443
   Au   O 
    36     1
Selective dynamics
Direct
  0.0000000000000000  0.0000000000000000  0.0000000000000000   F   F   F
  0.3333333333333357  0.0000000000000000  0.0000000000000000   F   F   F
  0.6666666666666643  0.0000000000000000  0.0000000000000000   F   F   F
  0.0000000000000000  0.3333333333333357  0.0000000000000000   F   F   F
  0.3333333333333357  0.3333333333333357  0.0000000000000000   F   F   F
  0.6666666666666643  0.3333333333333357  0.0000000000000000   F   F   F
  0.0000000000000000  0.6666666666666643  0.0000000000000000   F   F   F
  0.3333333333333357  0.6666666666666643  0.0000000000000000   F   F   F
  0.6666666666666643  0.6666666666666643  0.0000000000000000   F   F   F
  0.1111111111111143  0.1111111111111143  0.1033294158990401   F   F   F
  0.4444444444444429  0.1111111111111143  0.1033294158990401   F   F   F
  0.7777777777777786  0.1111111111111143  0.1033294158990401   F   F   F
  0.1111111111111143  0.4444444444444429  0.1033294158990401   F   F   F
  0.4444444444444429  0.4444444444444429  0.1033294158990401   F   F   F
  0.7777777777777786  0.4444444444444429  0.1033294158990401   F   F   F
  0.1111111111111143  0.7777777777777786  0.1033294158990401   F   F   F
  0.4444444444444429  0.7777777777777786  0.1033294158990401   F   F   F
  0.7777777777777786  0.7777777777777786  0.1033294158990401   F   F   F
  0.8888572328672382  0.2239993730562091  0.2068130025714154   T   T   T
  0.2200926235272505  0.2223864463001206  0.2088999075271474   T   T   T
  0.5509920035358320  0.2225645420777980  0.2067092672969792   T   T   T
  0.8901299676276935  0.5528433616156931  0.2065147240003640   T   T   T
  0.2207396799451331  0.5528161697691800  0.2067233516126521   T   T   T
  0.5533441781525212  0.5550929713526500  0.2042089226134252   T   T   T
  0.8877031458879614  0.8893622005731388  0.2044485719037112   T   T   T
  0.2219935826436483  0.8908433103578872  0.2067479929461982   T   T   T
  0.5509432842324600  0.8920843117791293  0.2064355202924020   T   T   T
  0.9966406025303911  0.9997324119366198  0.3077688630042275   T   T   T
  0.3480224663381151  0.9788700440874081  0.3149668477479537   T   T   T
  0.6705636034757205  0.9991013626245504  0.3092000817686369   T   T   T
  0.9747705025135076  0.3514727089566989  0.3155141986792316   T   T   T
  0.3327217343033411  0.3363737552335095  0.3156433891858512   T   T   T
  0.6591656739011214  0.3349684653232714  0.3089229799228974   T   T   T
  0.9959602825563607  0.6735951050677826  0.3092477287765050   T   T   T
  0.3317584538034666  0.6626069702803150  0.3088963557262758   T   T   T
  0.6619066511923180  0.6653636932134290  0.3066370602039115   T   T   T
  0.2046670658134744  0.2078587424149987  0.3657094908106728   T   T   T

  0.00000000E+00  0.00000000E+00  0.00000000E+00
  0.00000000E+00  0.00000000E+00  0.00000000E+00
  0.00000000E+00  0.00000000E+00  0.00000000E+00
  0.00000000E+00  0.00000000E+00  0.00000000E+00
  0.00000000E+00  0.00000000E+00  0.00000000E+00
  0.00000000E+00  0.00000000E+00  0.00000000E+00
  0.00000000E+00  0.00000000E+00  0.00000000E+00
  0.00000000E+00  0.00000000E+00  0.00000000E+00
  0.00000000E+00  0.00000000E+00  0.00000000E+00
  0.00000000E+00  0.00000000E+00  0.00000000E+00
  0.00000000E+00  0.00000000E+00  0.00000000E+00
  0.00000000E+00  0.00000000E+00  0.00000000E+00
  0.00000000E+00  0.00000000E+00  0.00000000E+00
  0.00000000E+00  0.00000000E+00  0.00000000E+00
  0.00000000E+00  0.00000000E+00  0.00000000E+00
  0.00000000E+00  0.00000000E+00  0.00000000E+00
  0.00000000E+00  0.00000000E+00  0.00000000E+00
  0.00000000E+00  0.00000000E+00  0.00000000E+00
  0.00000000E+00  0.00000000E+00  0.00000000E+00
  0.00000000E+00  0.00000000E+00  0.00000000E+00
  0.00000000E+00  0.00000000E+00  0.00000000E+00
  0.00000000E+00  0.00000000E+00  0.00000000E+00
  0.00000000E+00  0.00000000E+00  0.00000000E+00
  0.00000000E+00  0.00000000E+00  0.00000000E+00
  0.00000000E+00  0.00000000E+00  0.00000000E+00
  0.00000000E+00  0.00000000E+00  0.00000000E+00
  0.00000000E+00  0.00000000E+00  0.00000000E+00
  0.00000000E+00  0.00000000E+00  0.00000000E+00
  0.00000000E+00  0.00000000E+00  0.00000000E+00
  0.00000000E+00  0.00000000E+00  0.00000000E+00
  0.00000000E+00  0.00000000E+00  0.00000000E+00
  0.00000000E+00  0.00000000E+00  0.00000000E+00
  0.00000000E+00  0.00000000E+00  0.00000000E+00
  0.00000000E+00  0.00000000E+00  0.00000000E+00
  0.00000000E+00  0.00000000E+00  0.00000000E+00
  0.00000000E+00  0.00000000E+00  0.00000000E+00
  0.00000000E+00  0.00000000E+00  0.00000000E+00
