Au O 
 1.0000000000000000
     8.8034794257725189    0.0000000000000000    0.0000000000000000
     4.4017397128862594    7.6240368244126415    0.0000000000000000
     0.0000000000000000    0.0000000000000000   23.1880108514108443
 Au  O  
  36   1
Selective dynamics
Cartesian
  0.0000000000000000  0.0000000000000000  0.0000000000000000   F   F   F
  2.9344931419241940  0.0000000000000000  0.0000000000000000   F   F   F
  5.8689862838483249  0.0000000000000000  0.0000000000000000   F   F   F
  1.4672465709620970  2.5413456081375654  0.0000000000000000   F   F   F
  4.4017397128862905  2.5413456081375654  0.0000000000000000   F   F   F
  7.3362328548104214  2.5413456081375654  0.0000000000000000   F   F   F
  2.9344931419241624  5.0826912162750766  0.0000000000000000   F   F   F
  5.8689862838483569  5.0826912162750766  0.0000000000000000   F   F   F
  8.8034794257724869  5.0826912162750766  0.0000000000000000   F   F   F
  1.4672465709621285  0.8471152027125400  2.3960036171368859   F   F   F
  4.4017397128862603  0.8471152027125400  2.3960036171368859   F   F   F
  7.3362328548104534  0.8471152027125400  2.3960036171368859   F   F   F
  2.9344931419241944  3.3884608108500514  2.3960036171368859   F   F   F
  5.8689862838483258  3.3884608108500514  2.3960036171368859   F   F   F
  8.8034794257725189  3.3884608108500514  2.3960036171368859   F   F   F
  4.4017397128862905  5.9298064189876163  2.3960036171368859   F   F   F
  7.3362328548104223  5.9298064189876163  2.3960036171368859   F   F   F
 10.2707259967346154  5.9298064189876163  2.3960036171368859   F   F   F
  8.8110232980389256  1.7077794688258681  4.7955821478387941   T   T   T
  2.9164681352733197  1.6954824558424111  4.8439733225981376   T   T   T
  5.8303179504370712  1.6968402646096672  4.7931767331695481   T   T   T
 10.2697134361033378  4.2148981470901434  4.7886656610964824   T   T   T
  4.3766301192472854  4.2146908354509698  4.7935033204342590   T   T   T
  7.3147288640837296  4.2320492545652284  4.7351987135150928   T   T   T
 11.7296172984208944  6.7805301674102951  4.7407557038586958   T   T   T
  5.8755763146182511  6.7918222029502155  4.7940747039437763   T   T   T
  8.7769408099090072  6.8012836434848953  4.7868290846569250   T   T   T
 13.1744668991467808  7.6219967231636341  7.1365477350683753   T   T   T
  7.3725397689284886  7.4629412624368348  7.3034546834141993   T   T   T
 10.3010770319336160  7.6171855799704158  7.1697348513082844   T   T   T
 10.1284634447380100  2.6796408758619208  7.3161466627482534   T   T   T
  4.4097386592308334  2.5645258966662219  7.3191423336175747   T   T   T
  7.2773954447419875  2.5538119146416109  7.1633094107023103   T   T   T
 11.7329061807541404  5.1355138857808535  7.1708396906436978   T   T   T
  5.8372521375030093  5.0517399415296147  7.1626920485421390   T   T   T
  8.7558393774837775  5.0727572986863612  7.1103034794530071   T   T   T
  2.7167223841808243  1.5847227064480347  8.4800756413818021   T   T   T
