Ag H  S                                 
   1.0000000000000000     
     8.7928728240547187    0.0000000000000000    0.0000000000000000
     0.0000000000000000    8.7928728240547187    0.0000000000000000
     0.0000000000000000    0.0000000000000000   21.2175000000000011
   Ag   H    S 
    36     1     1
Selective dynamics
Direct
  0.1666666666666643  0.1666666666666643  0.0000000000000000   F   F   F
  0.5000000000000000  0.1666666666666643  0.0000000000000000   F   F   F
  0.8333333333333357  0.1666666666666643  0.0000000000000000   F   F   F
  0.1666666666666643  0.5000000000000000  0.0000000000000000   F   F   F
  0.5000000000000000  0.5000000000000000  0.0000000000000000   F   F   F
  0.8333333333333357  0.5000000000000000  0.0000000000000000   F   F   F
  0.1666666666666643  0.8333333333333357  0.0000000000000000   F   F   F
  0.5000000000000000  0.8333333333333357  0.0000000000000000   F   F   F
  0.8333333333333357  0.8333333333333357  0.0000000000000000   F   F   F
  0.0000000000000000  0.0000000000000000  0.0976788028749880   F   F   F
  0.3333333333333357  0.0000000000000000  0.0976788028749880   F   F   F
  0.6666666666666643  0.0000000000000000  0.0976788028749880   F   F   F
  0.0000000000000000  0.3333333333333357  0.0976788028749880   F   F   F
  0.3333333333333357  0.3333333333333357  0.0976788028749880   F   F   F
  0.6666666666666643  0.3333333333333357  0.0976788028749880   F   F   F
  0.0000000000000000  0.6666666666666643  0.0976788028749880   F   F   F
  0.3333333333333357  0.6666666666666643  0.0976788028749880   F   F   F
  0.6666666666666643  0.6666666666666643  0.0976788028749880   F   F   F
  0.1676699792870185  0.1694178182625180  0.1958766813527463   T   T   T
  0.4993294995451459  0.1675104330371298  0.1953544960272034   T   T   T
  0.8349094672911750  0.1670893449441823  0.1951061785212437   T   T   T
  0.1663536031516137  0.5004330003252425  0.1955232912444591   T   T   T
  0.4973325022739926  0.4992058638552736  0.1958613935532917   T   T   T
  0.8350355729209071  0.4992063579253934  0.1957516383484605   T   T   T
  0.1675761759718408  0.8317655571598255  0.1957739214390270   T   T   T
  0.4996082668141677  0.8319426539111274  0.1951334491360353   T   T   T
  0.8350994389782158  0.8316712676790877  0.1950561714433418   T   T   T
  0.0005684118977912  0.0004174891255732  0.2901275390528930   T   T   T
  0.3374945435130158  0.0006598254334036  0.2904889438842889   T   T   T
  0.6690585450442419  0.9978688257422327  0.2906587116612336   T   T   T
  0.9926964932713453  0.3268071423996637  0.2939723988247704   T   T   T
  0.3404664952358851  0.3265660587568930  0.2949105321466573   T   T   T
  0.6663859395777980  0.3294454467967022  0.2904290699896129   T   T   T
  0.9924082694278693  0.6742864879571119  0.2941124843408872   T   T   T
  0.3399805569729513  0.6743934646312323  0.2940329517208921   T   T   T
  0.6663380609587337  0.6663351158015262  0.2901087873676626   T   T   T
  0.1729810987047110  0.4960286625401801  0.4315679461629128   T   T   T
  0.1677528611730627  0.4997329398003254  0.3672420155328672   T   T   T

  0.00000000E+00  0.00000000E+00  0.00000000E+00
  0.00000000E+00  0.00000000E+00  0.00000000E+00
  0.00000000E+00  0.00000000E+00  0.00000000E+00
  0.00000000E+00  0.00000000E+00  0.00000000E+00
  0.00000000E+00  0.00000000E+00  0.00000000E+00
  0.00000000E+00  0.00000000E+00  0.00000000E+00
  0.00000000E+00  0.00000000E+00  0.00000000E+00
  0.00000000E+00  0.00000000E+00  0.00000000E+00
  0.00000000E+00  0.00000000E+00  0.00000000E+00
  0.00000000E+00  0.00000000E+00  0.00000000E+00
  0.00000000E+00  0.00000000E+00  0.00000000E+00
  0.00000000E+00  0.00000000E+00  0.00000000E+00
  0.00000000E+00  0.00000000E+00  0.00000000E+00
  0.00000000E+00  0.00000000E+00  0.00000000E+00
  0.00000000E+00  0.00000000E+00  0.00000000E+00
  0.00000000E+00  0.00000000E+00  0.00000000E+00
  0.00000000E+00  0.00000000E+00  0.00000000E+00
  0.00000000E+00  0.00000000E+00  0.00000000E+00
  0.00000000E+00  0.00000000E+00  0.00000000E+00
  0.00000000E+00  0.00000000E+00  0.00000000E+00
  0.00000000E+00  0.00000000E+00  0.00000000E+00
  0.00000000E+00  0.00000000E+00  0.00000000E+00
  0.00000000E+00  0.00000000E+00  0.00000000E+00
  0.00000000E+00  0.00000000E+00  0.00000000E+00
  0.00000000E+00  0.00000000E+00  0.00000000E+00
  0.00000000E+00  0.00000000E+00  0.00000000E+00
  0.00000000E+00  0.00000000E+00  0.00000000E+00
  0.00000000E+00  0.00000000E+00  0.00000000E+00
  0.00000000E+00  0.00000000E+00  0.00000000E+00
  0.00000000E+00  0.00000000E+00  0.00000000E+00
  0.00000000E+00  0.00000000E+00  0.00000000E+00
  0.00000000E+00  0.00000000E+00  0.00000000E+00
  0.00000000E+00  0.00000000E+00  0.00000000E+00
  0.00000000E+00  0.00000000E+00  0.00000000E+00
  0.00000000E+00  0.00000000E+00  0.00000000E+00
  0.00000000E+00  0.00000000E+00  0.00000000E+00
  0.00000000E+00  0.00000000E+00  0.00000000E+00
  0.00000000E+00  0.00000000E+00  0.00000000E+00
