Ag H  S                                 
   1.0000000000000000     
     8.7928728240547187    0.0000000000000000    0.0000000000000000
     0.0000000000000000    8.7928728240547187    0.0000000000000000
     0.0000000000000000    0.0000000000000000   21.2175000000000011
   Ag   H    S 
    36     1     1
Selective dynamics
Direct
  0.1666666666666643  0.1666666666666643  0.0000000000000000   F   F   F
  0.5000000000000000  0.1666666666666643  0.0000000000000000   F   F   F
  0.8333333333333357  0.1666666666666643  0.0000000000000000   F   F   F
  0.1666666666666643  0.5000000000000000  0.0000000000000000   F   F   F
  0.5000000000000000  0.5000000000000000  0.0000000000000000   F   F   F
  0.8333333333333357  0.5000000000000000  0.0000000000000000   F   F   F
  0.1666666666666643  0.8333333333333357  0.0000000000000000   F   F   F
  0.5000000000000000  0.8333333333333357  0.0000000000000000   F   F   F
  0.8333333333333357  0.8333333333333357  0.0000000000000000   F   F   F
  0.0000000000000000  0.0000000000000000  0.0976788028749880   F   F   F
  0.3333333333333357  0.0000000000000000  0.0976788028749880   F   F   F
  0.6666666666666643  0.0000000000000000  0.0976788028749880   F   F   F
  0.0000000000000000  0.3333333333333357  0.0976788028749880   F   F   F
  0.3333333333333357  0.3333333333333357  0.0976788028749880   F   F   F
  0.6666666666666643  0.3333333333333357  0.0976788028749880   F   F   F
  0.0000000000000000  0.6666666666666643  0.0976788028749880   F   F   F
  0.3333333333333357  0.6666666666666643  0.0976788028749880   F   F   F
  0.6666666666666643  0.6666666666666643  0.0976788028749880   F   F   F
  0.1668523015691356  0.1675173188165529  0.1949771962508715   T   T   T
  0.4970151823306804  0.1654648913488973  0.1964009091767060   T   T   T
  0.8370387822469900  0.1654574037642071  0.1965698529872819   T   T   T
  0.1665820782895500  0.5000087612757720  0.1936131994956119   T   T   T
  0.4992723352448125  0.4995254517795598  0.1940849413783675   T   T   T
  0.8338615763424317  0.4995599853361784  0.1941353105839129   T   T   T
  0.1667098021474441  0.8324095351299968  0.1949168891863929   T   T   T
  0.4969918761572534  0.8333882664526548  0.1963632395986889   T   T   T
  0.8365677766720720  0.8336104604283340  0.1964903701999404   T   T   T
  0.0007763892730617  0.9994310829025085  0.2948592732892416   T   T   T
  0.3344759224811632  0.9993933864041964  0.2947204450065181   T   T   T
  0.6675521510161124  0.9991040242343061  0.2899825609507755   T   T   T
  0.9945128734854143  0.3320718393072111  0.2940717163871138   T   T   T
  0.3385714376564122  0.3320270929008264  0.2940038646174183   T   T   T
  0.6666504321107506  0.3329844718670950  0.2894475127472176   T   T   T
  0.9943401297393328  0.6670341385330339  0.2940159324559640   T   T   T
  0.3385964836603892  0.6671988640835168  0.2940148586654837   T   T   T
  0.6664943630195723  0.6655138811124640  0.2894192450495113   T   T   T
  0.1679919896308469  0.9950884539504304  0.3451559782909580   T   T   T
  0.1664278479389119  0.4996500377904443  0.3595805891486885   T   T   T

  0.00000000E+00  0.00000000E+00  0.00000000E+00
  0.00000000E+00  0.00000000E+00  0.00000000E+00
  0.00000000E+00  0.00000000E+00  0.00000000E+00
  0.00000000E+00  0.00000000E+00  0.00000000E+00
  0.00000000E+00  0.00000000E+00  0.00000000E+00
  0.00000000E+00  0.00000000E+00  0.00000000E+00
  0.00000000E+00  0.00000000E+00  0.00000000E+00
  0.00000000E+00  0.00000000E+00  0.00000000E+00
  0.00000000E+00  0.00000000E+00  0.00000000E+00
  0.00000000E+00  0.00000000E+00  0.00000000E+00
  0.00000000E+00  0.00000000E+00  0.00000000E+00
  0.00000000E+00  0.00000000E+00  0.00000000E+00
  0.00000000E+00  0.00000000E+00  0.00000000E+00
  0.00000000E+00  0.00000000E+00  0.00000000E+00
  0.00000000E+00  0.00000000E+00  0.00000000E+00
  0.00000000E+00  0.00000000E+00  0.00000000E+00
  0.00000000E+00  0.00000000E+00  0.00000000E+00
  0.00000000E+00  0.00000000E+00  0.00000000E+00
  0.00000000E+00  0.00000000E+00  0.00000000E+00
  0.00000000E+00  0.00000000E+00  0.00000000E+00
  0.00000000E+00  0.00000000E+00  0.00000000E+00
  0.00000000E+00  0.00000000E+00  0.00000000E+00
  0.00000000E+00  0.00000000E+00  0.00000000E+00
  0.00000000E+00  0.00000000E+00  0.00000000E+00
  0.00000000E+00  0.00000000E+00  0.00000000E+00
  0.00000000E+00  0.00000000E+00  0.00000000E+00
  0.00000000E+00  0.00000000E+00  0.00000000E+00
  0.00000000E+00  0.00000000E+00  0.00000000E+00
  0.00000000E+00  0.00000000E+00  0.00000000E+00
  0.00000000E+00  0.00000000E+00  0.00000000E+00
  0.00000000E+00  0.00000000E+00  0.00000000E+00
  0.00000000E+00  0.00000000E+00  0.00000000E+00
  0.00000000E+00  0.00000000E+00  0.00000000E+00
  0.00000000E+00  0.00000000E+00  0.00000000E+00
  0.00000000E+00  0.00000000E+00  0.00000000E+00
  0.00000000E+00  0.00000000E+00  0.00000000E+00
  0.00000000E+00  0.00000000E+00  0.00000000E+00
  0.00000000E+00  0.00000000E+00  0.00000000E+00
