Mg O  Pd                                
   1.0000000000000000     
    12.7349999999999994    0.0000000000000000    0.0000000000000000
     0.0000000000000000   12.7349999999999994    0.0000000000000000
     0.0000000000000000    0.0000000000000000   25.6125000000000007
   Mg   O    Pd
   108   108     4
Selective dynamics
Direct
  0.0000000000000000  0.0000000000000000  0.0000000000000000   F   F   F
  0.1666666666666643  0.1666666666666643  0.0000000000000000   F   F   F
  0.0000000000000000  0.1666666666666643  0.0828696925329453   F   F   F
  0.1666666666666643  0.0000000000000000  0.0828696925329453   F   F   F
  0.0000000000000000  0.0000000000000000  0.1657393850658835   F   F   F
  0.1666666666666643  0.1666666666666643  0.1657393850658835   F   F   F
  0.9998625524627527  0.1664781175249999  0.2485685701604486   T   T   T
  0.1664349112113672  0.9996418399153996  0.2485698700527335   T   T   T
  0.9997124255102635  0.9994941370868361  0.3315644935674999   T   T   T
  0.1662901315838851  0.1659308011758605  0.3315131972101742   T   T   T
  0.9991011808274652  0.1654619735088888  0.4135056394443705   T   T   T
  0.1655139702766031  0.0000485406785269  0.4135179127707005   T   T   T
  0.0000000000000000  0.3333333333333357  0.0000000000000000   F   F   F
  0.1666666666666643  0.5000000000000000  0.0000000000000000   F   F   F
  0.0000000000000000  0.5000000000000000  0.0828696925329453   F   F   F
  0.1666666666666643  0.3333333333333357  0.0828696925329453   F   F   F
  0.0000000000000000  0.3333333333333357  0.1657393850658835   F   F   F
  0.1666666666666643  0.5000000000000000  0.1657393850658835   F   F   F
  0.9998511488898595  0.4997989050105690  0.2487428071153402   T   T   T
  0.1664138010663157  0.3331192773476661  0.2486761693838745   T   T   T
  0.9997515621301425  0.3327630032282142  0.3319134729045916   T   T   T
  0.1660857106454869  0.4995997676911866  0.3317438472314330   T   T   T
  0.9969904980599428  0.4986769792701250  0.4144859738750664   T   T   T
  0.1659431965955282  0.3289255113481914  0.4142520886408260   T   T   T
  0.0000000000000000  0.6666666666666643  0.0000000000000000   F   F   F
  0.1666666666666643  0.8333333333333357  0.0000000000000000   F   F   F
  0.0000000000000000  0.8333333333333357  0.0828696925329453   F   F   F
  0.1666666666666643  0.6666666666666643  0.0828696925329453   F   F   F
  0.0000000000000000  0.6666666666666643  0.1657393850658835   F   F   F
  0.1666666666666643  0.8333333333333357  0.1657393850658835   F   F   F
  0.9999008225900677  0.8329270628831770  0.2486587163339669   T   T   T
  0.1663993284630252  0.6664487838227496  0.2488123165135138   T   T   T
  0.9998653796315400  0.6661958872099432  0.3322099199754384   T   T   T
  0.1662657801910472  0.8328595496200056  0.3319452403826254   T   T   T
  0.9989536080319567  0.8338470993084338  0.4137467650183365   T   T   T
  0.1633220020764030  0.6689108348127016  0.4164217780544194   T   T   T
  0.3333333333333357  0.0000000000000000  0.0000000000000000   F   F   F
  0.5000000000000000  0.1666666666666643  0.0000000000000000   F   F   F
  0.3333333333333357  0.1666666666666643  0.0828696925329453   F   F   F
  0.5000000000000000  0.0000000000000000  0.0828696925329453   F   F   F
  0.3333333333333357  0.0000000000000000  0.1657393850658835   F   F   F
  0.5000000000000000  0.1666666666666643  0.1657393850658835   F   F   F
  0.3332299820752403  0.1663318649257313  0.2484739821967145   T   T   T
  0.5000095442905514  0.9996575126374547  0.2485557536786526   T   T   T
  0.3331227852426805  0.9999760344872517  0.3312198528118278   T   T   T
  0.5000596839905944  0.1659349789589128  0.3314834335638675   T   T   T
  0.3331318218909073  0.1651040210057876  0.4131753592409332   T   T   T
  0.5007295924081514  0.0000682346072596  0.4134787088473941   T   T   T
  0.3333333333333357  0.3333333333333357  0.0000000000000000   F   F   F
  0.5000000000000000  0.5000000000000000  0.0000000000000000   F   F   F
  0.3333333333333357  0.5000000000000000  0.0828696925329453   F   F   F
  0.5000000000000000  0.3333333333333357  0.0828696925329453   F   F   F
  0.3333333333333357  0.3333333333333357  0.1657393850658835   F   F   F
  0.5000000000000000  0.5000000000000000  0.1657393850658835   F   F   F
  0.3332350797137926  0.4998419862591345  0.2487621899939681   T   T   T
  0.5000715124068539  0.3331063743239629  0.2486548517821088   T   T   T
  0.3331793130745377  0.3319849961519782  0.3315790698636151   T   T   T
  0.5003217785830523  0.4995545728270731  0.3316858963992298   T   T   T
  0.3332391036752681  0.4943249302903204  0.4147612788158020   T   T   T
  0.5003762735212011  0.3288669644452482  0.4142039126396256   T   T   T
  0.3333333333333357  0.6666666666666643  0.0000000000000000   F   F   F
  0.5000000000000000  0.8333333333333357  0.0000000000000000   F   F   F
  0.3333333333333357  0.8333333333333357  0.0828696925329453   F   F   F
  0.5000000000000000  0.6666666666666643  0.0828696925329453   F   F   F
  0.3333333333333357  0.6666666666666643  0.1657393850658835   F   F   F
  0.5000000000000000  0.8333333333333357  0.1657393850658835   F   F   F
  0.3332344736420336  0.8332879746618841  0.2485848162495327   T   T   T
  0.5000917838077429  0.6664593981434254  0.2487978529410303   T   T   T
  0.3331908274002397  0.6671577147994465  0.3315508186486749   T   T   T
  0.5000798433980946  0.8328957149791981  0.3319027381130547   T   T   T
  0.3331693524007612  0.8380336395559747  0.4132672130989768   T   T   T
  0.5031176861757993  0.6689280636274351  0.4163214517608287   T   T   T
  0.6666666666666643  0.0000000000000000  0.0000000000000000   F   F   F
  0.8333333333333357  0.1666666666666643  0.0000000000000000   F   F   F
  0.6666666666666643  0.1666666666666643  0.0828696925329453   F   F   F
  0.8333333333333357  0.0000000000000000  0.0828696925329453   F   F   F
  0.6666666666666643  0.0000000000000000  0.1657393850658835   F   F   F
  0.8333333333333357  0.1666666666666643  0.1657393850658835   F   F   F
  0.6666459774251642  0.1664741194342444  0.2485429090038119   T   T   T
  0.8332562681287854  0.9996900793855532  0.2485386759784186   T   T   T
  0.6666570559711187  0.9995289070854885  0.3315509280025799   T   T   T
  0.8331676894282266  0.1661108489230106  0.3315326300933601   T   T   T
  0.6671797529487169  0.1654704945562912  0.4134872086890714   T   T   T
  0.8331745266423982  0.9996803488899695  0.4134378190472950   T   T   T
  0.6666666666666643  0.3333333333333357  0.0000000000000000   F   F   F
  0.8333333333333357  0.5000000000000000  0.0000000000000000   F   F   F
  0.6666666666666643  0.5000000000000000  0.0828696925329453   F   F   F
  0.8333333333333357  0.3333333333333357  0.0828696925329453   F   F   F
  0.6666666666666643  0.3333333333333357  0.1657393850658835   F   F   F
  0.8333333333333357  0.5000000000000000  0.1657393850658835   F   F   F
  0.6666721741598846  0.4997903309185793  0.2487181809394344   T   T   T
  0.8332672693031028  0.3331392383701213  0.2486387968105572   T   T   T
  0.6666035556523813  0.3327549112183507  0.3318651525319929   T   T   T
  0.8332063710700618  0.4995126528721323  0.3318560796938859   T   T   T
  0.6694323878380435  0.4986531788028342  0.4144184554398863   T   T   T
  0.8331594598588582  0.3313541006493115  0.4136959078305645   T   T   T
  0.6666666666666643  0.6666666666666643  0.0000000000000000   F   F   F
  0.8333333333333357  0.8333333333333357  0.0000000000000000   F   F   F
  0.6666666666666643  0.8333333333333357  0.0828696925329453   F   F   F
  0.8333333333333357  0.6666666666666643  0.0828696925329453   F   F   F
  0.6666666666666643  0.6666666666666643  0.1657393850658835   F   F   F
  0.8333333333333357  0.8333333333333357  0.1657393850658835   F   F   F
  0.6666183902098101  0.8329335841067371  0.2486326913349004   T   T   T
  0.8332795935358909  0.6663918489370027  0.2487605502401109   T   T   T
  0.6665442449353525  0.6661789354528519  0.3321504201240746   T   T   T
  0.8332071092511076  0.8328335766665833  0.3316829193287624   T   T   T
  0.6673417847811468  0.8338518307425545  0.4136978211316620   T   T   T
  0.8331653349933787  0.6669121189417189  0.4138779724775480   T   T   T
  0.0000000000000000  0.0000000000000000  0.0828696925329453   F   F   F
  0.1666666666666643  0.1666666666666643  0.0828696925329453   F   F   F
  0.0000000000000000  0.1666666666666643  0.0000000000000000   F   F   F
  0.1666666666666643  0.0000000000000000  0.0000000000000000   F   F   F
  0.9998994426479334  0.9996670166232171  0.2485087898395079   T   T   T
  0.1665089133291986  0.1666335322606850  0.2485457203583531   T   T   T
  0.0000000000000000  0.1666666666666643  0.1657393850658835   F   F   F
  0.1666666666666643  0.0000000000000000  0.1657393850658835   F   F   F
  0.9991950322882719  0.9996980077309244  0.4151225881222826   T   T   T
  0.1658193394248908  0.1650494531518489  0.4150568138940094   T   T   T
  0.9997401657044483  0.1662027534504515  0.3311195723506871   T   T   T
  0.1662596442349062  0.9995768070213029  0.3310756897459676   T   T   T
  0.0000000000000000  0.3333333333333357  0.0828696925329453   F   F   F
  0.1666666666666643  0.5000000000000000  0.0828696925329453   F   F   F
  0.0000000000000000  0.5000000000000000  0.0000000000000000   F   F   F
  0.1666666666666643  0.3333333333333357  0.0000000000000000   F   F   F
  0.9999558826256593  0.3333319121682632  0.2486439630415464   T   T   T
  0.1668443590492351  0.4999166909450002  0.2488978498507361   T   T   T
  0.0000000000000000  0.5000000000000000  0.1657393850658835   F   F   F
  0.1666666666666643  0.3333333333333357  0.1657393850658835   F   F   F
  0.9991391356602806  0.3317367182735315  0.4154132605999608   T   T   T
  0.1625988314112314  0.4970812438320753  0.4173623804257817   T   T   T
  0.0001989098133048  0.4994950197252077  0.3318830866188501   T   T   T
  0.1661668444593820  0.3333852352774128  0.3315469022314104   T   T   T
  0.0000000000000000  0.6666666666666643  0.0828696925329453   F   F   F
  0.1666666666666643  0.8333333333333357  0.0828696925329453   F   F   F
  0.0000000000000000  0.8333333333333357  0.0000000000000000   F   F   F
  0.1666666666666643  0.6666666666666643  0.0000000000000000   F   F   F
  0.0001304799725261  0.6661987574529838  0.2488177366326290   T   T   T
  0.1665588773089962  0.8326584866165463  0.2487424506914440   T   T   T
  0.0000000000000000  0.8333333333333357  0.1657393850658835   F   F   F
  0.1666666666666643  0.6666666666666643  0.1657393850658835   F   F   F
  0.9987631930749064  0.6664441476553579  0.4155599812213264   T   T   T
  0.1655550366789766  0.8345680482802782  0.4152288256442884   T   T   T
  0.9997519806133346  0.8327857451525255  0.3313352008607914   T   T   T
  0.1666956618675390  0.6654271597127090  0.3325141175601507   T   T   T
  0.3333333333333357  0.0000000000000000  0.0828696925329453   F   F   F
  0.5000000000000000  0.1666666666666643  0.0828696925329453   F   F   F
  0.3333333333333357  0.1666666666666643  0.0000000000000000   F   F   F
  0.5000000000000000  0.0000000000000000  0.0000000000000000   F   F   F
  0.3332264846738501  0.9996761014295473  0.2483557552803056   T   T   T
  0.4999758479074776  0.1666242718682847  0.2485205529606742   T   T   T
  0.3333333333333357  0.1666666666666643  0.1657393850658835   F   F   F
  0.5000000000000000  0.0000000000000000  0.1657393850658835   F   F   F
  0.3331347465326026  0.0006152100326660  0.4148302600745022   T   T   T
  0.5004309932413344  0.1650680618887790  0.4150103562035237   T   T   T
  0.3331606562812415  0.1656161101820847  0.3307231732062556   T   T   T
  0.5000771338693811  0.9995703855263766  0.3310550465350233   T   T   T
  0.3333333333333357  0.3333333333333357  0.0828696925329453   F   F   F
  0.5000000000000000  0.5000000000000000  0.0828696925329453   F   F   F
  0.3333333333333357  0.5000000000000000  0.0000000000000000   F   F   F
  0.5000000000000000  0.3333333333333357  0.0000000000000000   F   F   F
  0.3332453651939215  0.3335464577054379  0.2487824545987402   T   T   T
  0.4996392501653217  0.4999173739626149  0.2489003402068076   T   T   T
  0.3333333333333357  0.5000000000000000  0.1657393850658835   F   F   F
  0.5000000000000000  0.3333333333333357  0.1657393850658835   F   F   F
  0.3331581645666546  0.3291433525190237  0.4131178903466000   T   T   T
  0.5039667168303009  0.4969764714903709  0.4169384883594747   T   T   T
  0.3331500219816787  0.5002653017894756  0.3329359941531606   T   T   T
  0.5001551749683276  0.3333271188555106  0.3314922364494319   T   T   T
  0.3333333333333357  0.6666666666666643  0.0828696925329453   F   F   F
  0.5000000000000000  0.8333333333333357  0.0828696925329453   F   F   F
  0.3333333333333357  0.8333333333333357  0.0000000000000000   F   F   F
  0.5000000000000000  0.6666666666666643  0.0000000000000000   F   F   F
  0.3332536652821988  0.6662444857712552  0.2489114394308619   T   T   T
  0.4999217912048165  0.8326636971969851  0.2487095603311989   T   T   T
  0.3333333333333357  0.8333333333333357  0.1657393850658835   F   F   F
  0.5000000000000000  0.6666666666666643  0.1657393850658835   F   F   F
  0.3331909458107161  0.6729480696612231  0.4136898712097314   T   T   T
  0.5007467467898138  0.8345877080635384  0.4151683507778504   T   T   T
  0.3331812112782999  0.8335832153338469  0.3311024562971757   T   T   T
  0.4996924102086522  0.6654719557579415  0.3324539760792436   T   T   T
  0.6666666666666643  0.0000000000000000  0.0828696925329453   F   F   F
  0.8333333333333357  0.1666666666666643  0.0828696925329453   F   F   F
  0.6666666666666643  0.1666666666666643  0.0000000000000000   F   F   F
  0.8333333333333357  0.0000000000000000  0.0000000000000000   F   F   F
  0.6665767200447682  0.9996742063128676  0.2484972243567097   T   T   T
  0.8332661835508987  0.1665166682624853  0.2485082029923477   T   T   T
  0.6666666666666643  0.1666666666666643  0.1657393850658835   F   F   F
  0.8333333333333357  0.0000000000000000  0.1657393850658835   F   F   F
  0.6670756286165174  0.9997094601507193  0.4151096759808354   T   T   T
  0.8331569939618648  0.1656270238940440  0.4150943172851018   T   T   T
  0.6666397384234949  0.1661784360425224  0.3310850759805393   T   T   T
  0.8331848905345709  0.9995004063813320  0.3310490788262021   T   T   T
  0.6666666666666643  0.3333333333333357  0.0828696925329453   F   F   F
  0.8333333333333357  0.5000000000000000  0.0828696925329453   F   F   F
  0.6666666666666643  0.5000000000000000  0.0000000000000000   F   F   F
  0.8333333333333357  0.3333333333333357  0.0000000000000000   F   F   F
  0.6665589276662635  0.3333253122981576  0.2486461303740996   T   T   T
  0.8332720440546910  0.4998144259824510  0.2487670123601262   T   T   T
  0.6666666666666643  0.5000000000000000  0.1657393850658835   F   F   F
  0.8333333333333357  0.3333333333333357  0.1657393850658835   F   F   F
  0.6671497970401890  0.3316916743790873  0.4153486772189416   T   T   T
  0.8331213022566021  0.4990028996230111  0.4155815630093290   T   T   T
  0.6662514138273085  0.4994944091991830  0.3318088643080656   T   T   T
  0.8332047510491898  0.3329537137811324  0.3312821052848204   T   T   T
  0.6666666666666643  0.6666666666666643  0.0828696925329453   F   F   F
  0.8333333333333357  0.8333333333333357  0.0828696925329453   F   F   F
  0.6666666666666643  0.8333333333333357  0.0000000000000000   F   F   F
  0.8333333333333357  0.6666666666666643  0.0000000000000000   F   F   F
  0.6663994283026928  0.6661915882633249  0.2488097812098191   T   T   T
  0.8332700896980771  0.8328655061948095  0.2485866168059502   T   T   T
  0.6666666666666643  0.8333333333333357  0.1657393850658835   F   F   F
  0.8333333333333357  0.6666666666666643  0.1657393850658835   F   F   F
  0.6675764863602466  0.6664932583172004  0.4154606391857358   T   T   T
  0.8331580866911653  0.8332881019242557  0.4152528489617592   T   T   T
  0.6666231051391670  0.8328032671061848  0.3312942361098443   T   T   T
  0.8332051556119227  0.6660262470068216  0.3314672671443654   T   T   T
  0.3356107049048568  0.5557294292885658  0.5809895005294501   T   T   T
  0.3343901241403597  0.6701278829199716  0.4990323811496672   T   T   T
  0.2199969529332127  0.5017127955191300  0.5023257667314132   T   T   T
  0.4489744161220785  0.5017876850636845  0.5017750049871272   T   T   T

  0.00000000E+00  0.00000000E+00  0.00000000E+00
  0.00000000E+00  0.00000000E+00  0.00000000E+00
  0.00000000E+00  0.00000000E+00  0.00000000E+00
  0.00000000E+00  0.00000000E+00  0.00000000E+00
  0.00000000E+00  0.00000000E+00  0.00000000E+00
  0.00000000E+00  0.00000000E+00  0.00000000E+00
  0.00000000E+00  0.00000000E+00  0.00000000E+00
  0.00000000E+00  0.00000000E+00  0.00000000E+00
  0.00000000E+00  0.00000000E+00  0.00000000E+00
  0.00000000E+00  0.00000000E+00  0.00000000E+00
  0.00000000E+00  0.00000000E+00  0.00000000E+00
  0.00000000E+00  0.00000000E+00  0.00000000E+00
  0.00000000E+00  0.00000000E+00  0.00000000E+00
  0.00000000E+00  0.00000000E+00  0.00000000E+00
  0.00000000E+00  0.00000000E+00  0.00000000E+00
  0.00000000E+00  0.00000000E+00  0.00000000E+00
  0.00000000E+00  0.00000000E+00  0.00000000E+00
  0.00000000E+00  0.00000000E+00  0.00000000E+00
  0.00000000E+00  0.00000000E+00  0.00000000E+00
  0.00000000E+00  0.00000000E+00  0.00000000E+00
  0.00000000E+00  0.00000000E+00  0.00000000E+00
  0.00000000E+00  0.00000000E+00  0.00000000E+00
  0.00000000E+00  0.00000000E+00  0.00000000E+00
  0.00000000E+00  0.00000000E+00  0.00000000E+00
  0.00000000E+00  0.00000000E+00  0.00000000E+00
  0.00000000E+00  0.00000000E+00  0.00000000E+00
  0.00000000E+00  0.00000000E+00  0.00000000E+00
  0.00000000E+00  0.00000000E+00  0.00000000E+00
  0.00000000E+00  0.00000000E+00  0.00000000E+00
  0.00000000E+00  0.00000000E+00  0.00000000E+00
  0.00000000E+00  0.00000000E+00  0.00000000E+00
  0.00000000E+00  0.00000000E+00  0.00000000E+00
  0.00000000E+00  0.00000000E+00  0.00000000E+00
  0.00000000E+00  0.00000000E+00  0.00000000E+00
  0.00000000E+00  0.00000000E+00  0.00000000E+00
  0.00000000E+00  0.00000000E+00  0.00000000E+00
  0.00000000E+00  0.00000000E+00  0.00000000E+00
  0.00000000E+00  0.00000000E+00  0.00000000E+00
  0.00000000E+00  0.00000000E+00  0.00000000E+00
  0.00000000E+00  0.00000000E+00  0.00000000E+00
  0.00000000E+00  0.00000000E+00  0.00000000E+00
  0.00000000E+00  0.00000000E+00  0.00000000E+00
  0.00000000E+00  0.00000000E+00  0.00000000E+00
  0.00000000E+00  0.00000000E+00  0.00000000E+00
  0.00000000E+00  0.00000000E+00  0.00000000E+00
  0.00000000E+00  0.00000000E+00  0.00000000E+00
  0.00000000E+00  0.00000000E+00  0.00000000E+00
  0.00000000E+00  0.00000000E+00  0.00000000E+00
  0.00000000E+00  0.00000000E+00  0.00000000E+00
  0.00000000E+00  0.00000000E+00  0.00000000E+00
  0.00000000E+00  0.00000000E+00  0.00000000E+00
  0.00000000E+00  0.00000000E+00  0.00000000E+00
  0.00000000E+00  0.00000000E+00  0.00000000E+00
  0.00000000E+00  0.00000000E+00  0.00000000E+00
  0.00000000E+00  0.00000000E+00  0.00000000E+00
  0.00000000E+00  0.00000000E+00  0.00000000E+00
  0.00000000E+00  0.00000000E+00  0.00000000E+00
  0.00000000E+00  0.00000000E+00  0.00000000E+00
  0.00000000E+00  0.00000000E+00  0.00000000E+00
  0.00000000E+00  0.00000000E+00  0.00000000E+00
  0.00000000E+00  0.00000000E+00  0.00000000E+00
  0.00000000E+00  0.00000000E+00  0.00000000E+00
  0.00000000E+00  0.00000000E+00  0.00000000E+00
  0.00000000E+00  0.00000000E+00  0.00000000E+00
  0.00000000E+00  0.00000000E+00  0.00000000E+00
  0.00000000E+00  0.00000000E+00  0.00000000E+00
  0.00000000E+00  0.00000000E+00  0.00000000E+00
  0.00000000E+00  0.00000000E+00  0.00000000E+00
  0.00000000E+00  0.00000000E+00  0.00000000E+00
  0.00000000E+00  0.00000000E+00  0.00000000E+00
  0.00000000E+00  0.00000000E+00  0.00000000E+00
  0.00000000E+00  0.00000000E+00  0.00000000E+00
  0.00000000E+00  0.00000000E+00  0.00000000E+00
  0.00000000E+00  0.00000000E+00  0.00000000E+00
  0.00000000E+00  0.00000000E+00  0.00000000E+00
  0.00000000E+00  0.00000000E+00  0.00000000E+00
  0.00000000E+00  0.00000000E+00  0.00000000E+00
  0.00000000E+00  0.00000000E+00  0.00000000E+00
  0.00000000E+00  0.00000000E+00  0.00000000E+00
  0.00000000E+00  0.00000000E+00  0.00000000E+00
  0.00000000E+00  0.00000000E+00  0.00000000E+00
  0.00000000E+00  0.00000000E+00  0.00000000E+00
  0.00000000E+00  0.00000000E+00  0.00000000E+00
  0.00000000E+00  0.00000000E+00  0.00000000E+00
  0.00000000E+00  0.00000000E+00  0.00000000E+00
  0.00000000E+00  0.00000000E+00  0.00000000E+00
  0.00000000E+00  0.00000000E+00  0.00000000E+00
  0.00000000E+00  0.00000000E+00  0.00000000E+00
  0.00000000E+00  0.00000000E+00  0.00000000E+00
  0.00000000E+00  0.00000000E+00  0.00000000E+00
  0.00000000E+00  0.00000000E+00  0.00000000E+00
  0.00000000E+00  0.00000000E+00  0.00000000E+00
  0.00000000E+00  0.00000000E+00  0.00000000E+00
  0.00000000E+00  0.00000000E+00  0.00000000E+00
  0.00000000E+00  0.00000000E+00  0.00000000E+00
  0.00000000E+00  0.00000000E+00  0.00000000E+00
  0.00000000E+00  0.00000000E+00  0.00000000E+00
  0.00000000E+00  0.00000000E+00  0.00000000E+00
  0.00000000E+00  0.00000000E+00  0.00000000E+00
  0.00000000E+00  0.00000000E+00  0.00000000E+00
  0.00000000E+00  0.00000000E+00  0.00000000E+00
  0.00000000E+00  0.00000000E+00  0.00000000E+00
  0.00000000E+00  0.00000000E+00  0.00000000E+00
  0.00000000E+00  0.00000000E+00  0.00000000E+00
  0.00000000E+00  0.00000000E+00  0.00000000E+00
  0.00000000E+00  0.00000000E+00  0.00000000E+00
  0.00000000E+00  0.00000000E+00  0.00000000E+00
  0.00000000E+00  0.00000000E+00  0.00000000E+00
  0.00000000E+00  0.00000000E+00  0.00000000E+00
  0.00000000E+00  0.00000000E+00  0.00000000E+00
  0.00000000E+00  0.00000000E+00  0.00000000E+00
  0.00000000E+00  0.00000000E+00  0.00000000E+00
  0.00000000E+00  0.00000000E+00  0.00000000E+00
  0.00000000E+00  0.00000000E+00  0.00000000E+00
  0.00000000E+00  0.00000000E+00  0.00000000E+00
  0.00000000E+00  0.00000000E+00  0.00000000E+00
  0.00000000E+00  0.00000000E+00  0.00000000E+00
  0.00000000E+00  0.00000000E+00  0.00000000E+00
  0.00000000E+00  0.00000000E+00  0.00000000E+00
  0.00000000E+00  0.00000000E+00  0.00000000E+00
  0.00000000E+00  0.00000000E+00  0.00000000E+00
  0.00000000E+00  0.00000000E+00  0.00000000E+00
  0.00000000E+00  0.00000000E+00  0.00000000E+00
  0.00000000E+00  0.00000000E+00  0.00000000E+00
  0.00000000E+00  0.00000000E+00  0.00000000E+00
  0.00000000E+00  0.00000000E+00  0.00000000E+00
  0.00000000E+00  0.00000000E+00  0.00000000E+00
  0.00000000E+00  0.00000000E+00  0.00000000E+00
  0.00000000E+00  0.00000000E+00  0.00000000E+00
  0.00000000E+00  0.00000000E+00  0.00000000E+00
  0.00000000E+00  0.00000000E+00  0.00000000E+00
  0.00000000E+00  0.00000000E+00  0.00000000E+00
  0.00000000E+00  0.00000000E+00  0.00000000E+00
  0.00000000E+00  0.00000000E+00  0.00000000E+00
  0.00000000E+00  0.00000000E+00  0.00000000E+00
  0.00000000E+00  0.00000000E+00  0.00000000E+00
  0.00000000E+00  0.00000000E+00  0.00000000E+00
  0.00000000E+00  0.00000000E+00  0.00000000E+00
  0.00000000E+00  0.00000000E+00  0.00000000E+00
  0.00000000E+00  0.00000000E+00  0.00000000E+00
  0.00000000E+00  0.00000000E+00  0.00000000E+00
  0.00000000E+00  0.00000000E+00  0.00000000E+00
  0.00000000E+00  0.00000000E+00  0.00000000E+00
  0.00000000E+00  0.00000000E+00  0.00000000E+00
  0.00000000E+00  0.00000000E+00  0.00000000E+00
  0.00000000E+00  0.00000000E+00  0.00000000E+00
  0.00000000E+00  0.00000000E+00  0.00000000E+00
  0.00000000E+00  0.00000000E+00  0.00000000E+00
  0.00000000E+00  0.00000000E+00  0.00000000E+00
  0.00000000E+00  0.00000000E+00  0.00000000E+00
  0.00000000E+00  0.00000000E+00  0.00000000E+00
  0.00000000E+00  0.00000000E+00  0.00000000E+00
  0.00000000E+00  0.00000000E+00  0.00000000E+00
  0.00000000E+00  0.00000000E+00  0.00000000E+00
  0.00000000E+00  0.00000000E+00  0.00000000E+00
  0.00000000E+00  0.00000000E+00  0.00000000E+00
  0.00000000E+00  0.00000000E+00  0.00000000E+00
  0.00000000E+00  0.00000000E+00  0.00000000E+00
  0.00000000E+00  0.00000000E+00  0.00000000E+00
  0.00000000E+00  0.00000000E+00  0.00000000E+00
  0.00000000E+00  0.00000000E+00  0.00000000E+00
  0.00000000E+00  0.00000000E+00  0.00000000E+00
  0.00000000E+00  0.00000000E+00  0.00000000E+00
  0.00000000E+00  0.00000000E+00  0.00000000E+00
  0.00000000E+00  0.00000000E+00  0.00000000E+00
  0.00000000E+00  0.00000000E+00  0.00000000E+00
  0.00000000E+00  0.00000000E+00  0.00000000E+00
  0.00000000E+00  0.00000000E+00  0.00000000E+00
  0.00000000E+00  0.00000000E+00  0.00000000E+00
  0.00000000E+00  0.00000000E+00  0.00000000E+00
  0.00000000E+00  0.00000000E+00  0.00000000E+00
  0.00000000E+00  0.00000000E+00  0.00000000E+00
  0.00000000E+00  0.00000000E+00  0.00000000E+00
  0.00000000E+00  0.00000000E+00  0.00000000E+00
  0.00000000E+00  0.00000000E+00  0.00000000E+00
  0.00000000E+00  0.00000000E+00  0.00000000E+00
  0.00000000E+00  0.00000000E+00  0.00000000E+00
  0.00000000E+00  0.00000000E+00  0.00000000E+00
  0.00000000E+00  0.00000000E+00  0.00000000E+00
  0.00000000E+00  0.00000000E+00  0.00000000E+00
  0.00000000E+00  0.00000000E+00  0.00000000E+00
  0.00000000E+00  0.00000000E+00  0.00000000E+00
  0.00000000E+00  0.00000000E+00  0.00000000E+00
  0.00000000E+00  0.00000000E+00  0.00000000E+00
  0.00000000E+00  0.00000000E+00  0.00000000E+00
  0.00000000E+00  0.00000000E+00  0.00000000E+00
  0.00000000E+00  0.00000000E+00  0.00000000E+00
  0.00000000E+00  0.00000000E+00  0.00000000E+00
  0.00000000E+00  0.00000000E+00  0.00000000E+00
  0.00000000E+00  0.00000000E+00  0.00000000E+00
  0.00000000E+00  0.00000000E+00  0.00000000E+00
  0.00000000E+00  0.00000000E+00  0.00000000E+00
  0.00000000E+00  0.00000000E+00  0.00000000E+00
  0.00000000E+00  0.00000000E+00  0.00000000E+00
  0.00000000E+00  0.00000000E+00  0.00000000E+00
  0.00000000E+00  0.00000000E+00  0.00000000E+00
  0.00000000E+00  0.00000000E+00  0.00000000E+00
  0.00000000E+00  0.00000000E+00  0.00000000E+00
  0.00000000E+00  0.00000000E+00  0.00000000E+00
  0.00000000E+00  0.00000000E+00  0.00000000E+00
  0.00000000E+00  0.00000000E+00  0.00000000E+00
  0.00000000E+00  0.00000000E+00  0.00000000E+00
  0.00000000E+00  0.00000000E+00  0.00000000E+00
  0.00000000E+00  0.00000000E+00  0.00000000E+00
  0.00000000E+00  0.00000000E+00  0.00000000E+00
  0.00000000E+00  0.00000000E+00  0.00000000E+00
  0.00000000E+00  0.00000000E+00  0.00000000E+00
  0.00000000E+00  0.00000000E+00  0.00000000E+00
  0.00000000E+00  0.00000000E+00  0.00000000E+00
  0.00000000E+00  0.00000000E+00  0.00000000E+00
  0.00000000E+00  0.00000000E+00  0.00000000E+00
  0.00000000E+00  0.00000000E+00  0.00000000E+00
  0.00000000E+00  0.00000000E+00  0.00000000E+00
  0.00000000E+00  0.00000000E+00  0.00000000E+00
  0.00000000E+00  0.00000000E+00  0.00000000E+00
  0.00000000E+00  0.00000000E+00  0.00000000E+00
  0.00000000E+00  0.00000000E+00  0.00000000E+00
  0.00000000E+00  0.00000000E+00  0.00000000E+00
  0.00000000E+00  0.00000000E+00  0.00000000E+00
  0.00000000E+00  0.00000000E+00  0.00000000E+00
