Au O                                    
   1.0000000000000000     
     8.8034794257725189    0.0000000000000000    0.0000000000000000
     4.4017397128862594    7.6240368244126415    0.0000000000000000
     0.0000000000000000    0.0000000000000000   23.1880108514108443
   Au   O 
    36     1
Selective dynamics
Direct
  0.0000000000000000  0.0000000000000000  0.0000000000000000   F   F   F
  0.3333333333333357  0.0000000000000000  0.0000000000000000   F   F   F
  0.6666666666666643  0.0000000000000000  0.0000000000000000   F   F   F
  0.0000000000000000  0.3333333333333357  0.0000000000000000   F   F   F
  0.3333333333333357  0.3333333333333357  0.0000000000000000   F   F   F
  0.6666666666666643  0.3333333333333357  0.0000000000000000   F   F   F
  0.0000000000000000  0.6666666666666643  0.0000000000000000   F   F   F
  0.3333333333333357  0.6666666666666643  0.0000000000000000   F   F   F
  0.6666666666666643  0.6666666666666643  0.0000000000000000   F   F   F
  0.1111111111111143  0.1111111111111143  0.1033294158990401   F   F   F
  0.4444444444444429  0.1111111111111143  0.1033294158990401   F   F   F
  0.7777777777777786  0.1111111111111143  0.1033294158990401   F   F   F
  0.1111111111111143  0.4444444444444429  0.1033294158990401   F   F   F
  0.4444444444444429  0.4444444444444429  0.1033294158990401   F   F   F
  0.7777777777777786  0.4444444444444429  0.1033294158990401   F   F   F
  0.1111111111111143  0.7777777777777786  0.1033294158990401   F   F   F
  0.4444444444444429  0.7777777777777786  0.1033294158990401   F   F   F
  0.7777777777777786  0.7777777777777786  0.1033294158990401   F   F   F
  0.8894920578764598  0.2233632808428609  0.2070126781314272   T   T   T
  0.2199901232874453  0.2222486286844543  0.2083928470832106   T   T   T
  0.5540284706341581  0.2213121332413763  0.2056940803912894   T   T   T
  0.8901967087887570  0.5525070425270187  0.2067254232872529   T   T   T
  0.2195608602374648  0.5558314235052109  0.2056662866034600   T   T   T
  0.5539740642221886  0.5556481406928029  0.2045653315378431   T   T   T
  0.8881831878560575  0.8898185304821808  0.2047776035094060   T   T   T
  0.2214829974885788  0.8914493894066879  0.2069864879710082   T   T   T
  0.5505142643483651  0.8922797038284074  0.2066940925602481   T   T   T
  0.9979580713651757  0.0007791609846990  0.3085784945086942   T   T   T
  0.3548994785802222  0.9866077490900551  0.3144780113905128   T   T   T
  0.6720649651629174  0.0018180005864821  0.3097512968388401   T   T   T
  0.9828774848394346  0.3581787858871408  0.3147545811006225   T   T   T
  0.3350456153243115  0.3383572005504973  0.3092381193921199   T   T   T
  0.6629424142941858  0.3355421569596544  0.3088796856096536   T   T   T
  0.9990667147118373  0.6748477744226307  0.3097790512436305   T   T   T
  0.3326326860769910  0.6660927801512813  0.3088427741751332   T   T   T
  0.6647904409275540  0.6680944524800339  0.3069020409726804   T   T   T
  0.1669904063724772  0.1700309845033345  0.3692247468238250   T   T   T

  0.00000000E+00  0.00000000E+00  0.00000000E+00
  0.00000000E+00  0.00000000E+00  0.00000000E+00
  0.00000000E+00  0.00000000E+00  0.00000000E+00
  0.00000000E+00  0.00000000E+00  0.00000000E+00
  0.00000000E+00  0.00000000E+00  0.00000000E+00
  0.00000000E+00  0.00000000E+00  0.00000000E+00
  0.00000000E+00  0.00000000E+00  0.00000000E+00
  0.00000000E+00  0.00000000E+00  0.00000000E+00
  0.00000000E+00  0.00000000E+00  0.00000000E+00
  0.00000000E+00  0.00000000E+00  0.00000000E+00
  0.00000000E+00  0.00000000E+00  0.00000000E+00
  0.00000000E+00  0.00000000E+00  0.00000000E+00
  0.00000000E+00  0.00000000E+00  0.00000000E+00
  0.00000000E+00  0.00000000E+00  0.00000000E+00
  0.00000000E+00  0.00000000E+00  0.00000000E+00
  0.00000000E+00  0.00000000E+00  0.00000000E+00
  0.00000000E+00  0.00000000E+00  0.00000000E+00
  0.00000000E+00  0.00000000E+00  0.00000000E+00
  0.00000000E+00  0.00000000E+00  0.00000000E+00
  0.00000000E+00  0.00000000E+00  0.00000000E+00
  0.00000000E+00  0.00000000E+00  0.00000000E+00
  0.00000000E+00  0.00000000E+00  0.00000000E+00
  0.00000000E+00  0.00000000E+00  0.00000000E+00
  0.00000000E+00  0.00000000E+00  0.00000000E+00
  0.00000000E+00  0.00000000E+00  0.00000000E+00
  0.00000000E+00  0.00000000E+00  0.00000000E+00
  0.00000000E+00  0.00000000E+00  0.00000000E+00
  0.00000000E+00  0.00000000E+00  0.00000000E+00
  0.00000000E+00  0.00000000E+00  0.00000000E+00
  0.00000000E+00  0.00000000E+00  0.00000000E+00
  0.00000000E+00  0.00000000E+00  0.00000000E+00
  0.00000000E+00  0.00000000E+00  0.00000000E+00
  0.00000000E+00  0.00000000E+00  0.00000000E+00
  0.00000000E+00  0.00000000E+00  0.00000000E+00
  0.00000000E+00  0.00000000E+00  0.00000000E+00
  0.00000000E+00  0.00000000E+00  0.00000000E+00
  0.00000000E+00  0.00000000E+00  0.00000000E+00
