Au O 
 1.0000000000000000
     8.8034794257725189    0.0000000000000000    0.0000000000000000
     4.4017397128862594    7.6240368244126415    0.0000000000000000
     0.0000000000000000    0.0000000000000000   23.1880108514108443
 Au  O  
  36   1
Selective dynamics
Cartesian
  0.0000000000000000  0.0000000000000000  0.0000000000000000   F   F   F
  2.9344931419241940  0.0000000000000000  0.0000000000000000   F   F   F
  5.8689862838483249  0.0000000000000000  0.0000000000000000   F   F   F
  1.4672465709620970  2.5413456081375654  0.0000000000000000   F   F   F
  4.4017397128862905  2.5413456081375654  0.0000000000000000   F   F   F
  7.3362328548104214  2.5413456081375654  0.0000000000000000   F   F   F
  2.9344931419241624  5.0826912162750766  0.0000000000000000   F   F   F
  5.8689862838483569  5.0826912162750766  0.0000000000000000   F   F   F
  8.8034794257724869  5.0826912162750766  0.0000000000000000   F   F   F
  1.4672465709621285  0.8471152027125400  2.3960036171368859   F   F   F
  4.4017397128862603  0.8471152027125400  2.3960036171368859   F   F   F
  7.3362328548104534  0.8471152027125400  2.3960036171368859   F   F   F
  2.9344931419241944  3.3884608108500514  2.3960036171368859   F   F   F
  5.8689862838483258  3.3884608108500514  2.3960036171368859   F   F   F
  8.8034794257725189  3.3884608108500514  2.3960036171368859   F   F   F
  4.4017397128862905  5.9298064189876163  2.3960036171368859   F   F   F
  7.3362328548104223  5.9298064189876163  2.3960036171368859   F   F   F
 10.2707259967346154  5.9298064189876163  2.3960036171368859   F   F   F
  8.8138120545900698  1.7029298783675855  4.8002122268910856   T   T   T
  2.9149591392490826  1.6944317292655096  4.8322155995219491   T   T   T
  5.8515366483521731  1.6872918535215669  4.7696365681842430   T   T   T
 10.2688206014527239  4.2123340379733065  4.7935513584473108   T   T   T
  4.3795247663184069  4.2376792409694346  4.7689920855303969   T   T   T
  7.3227177640705676  4.2362818860583475  4.7434631275219203   T   T   T
 11.7358519834933723  6.7840092434408890  4.7483852923020038   T   T   T
  5.8737491909287494  6.7964429719367700  4.7996049291671543   T   T   T
  8.7740240071289968  6.8027733196637881  4.7928248612094704   T   T   T
 13.1906727257822602  7.6299771764521092  7.1553214791796016   T   T   T
  7.4671407681093678  7.5219338103134490  7.2921195406533599   T   T   T
 10.3262521718600890  7.6378973278307996  7.1825164323375841   T   T   T
 10.2293515019918360  2.7307682533269562  7.2985326420925771   T   T   T
  4.4389275080069890  2.5796477568021654  7.1706168681343385   T   T   T
  7.3131691423476450  2.5581857608032643  7.1623055016970634   T   T   T
 11.7657675167688147  5.1450642830710560  7.1831600017771011   T   T   T
  5.8602920510769634  5.0783158843487746  7.1614495989528137   T   T   T
  8.7932468525963436  5.0935767078935834  7.1164478563946414   T   T   T
  2.2185287437110097  1.2963224871445715  8.5615874359602078   T   T   T
