Pd H  S 
 1.0000000000000000
     8.3580021536249909    0.0000000000000000    0.0000000000000000
     0.0000000000000000    8.3580021536249909    0.0000000000000000
     0.0000000000000000    0.0000000000000000   19.9100000000000001
 Pd  H   S  
  36   2   1
Selective dynamics
Cartesian
  1.3930003589374786  1.3930003589374786  0.0000000000000000   F   F   F
  4.1790010768124954  1.3930003589374786  0.0000000000000000   F   F   F
  6.9650017946875122  1.3930003589374786  0.0000000000000000   F   F   F
  1.3930003589374786  4.1790010768124954  0.0000000000000000   F   F   F
  4.1790010768124954  4.1790010768124954  0.0000000000000000   F   F   F
  6.9650017946875122  4.1790010768124954  0.0000000000000000   F   F   F
  1.3930003589374786  6.9650017946875122  0.0000000000000000   F   F   F
  4.1790010768124954  6.9650017946875122  0.0000000000000000   F   F   F
  6.9650017946875122  6.9650017946875122  0.0000000000000000   F   F   F
  0.0000000000000000  0.0000000000000000  1.9700000000000610   F   F   F
  2.7860007178750168  0.0000000000000000  1.9700000000000610   F   F   F
  5.5720014357499741  0.0000000000000000  1.9700000000000610   F   F   F
  0.0000000000000000  2.7860007178750168  1.9700000000000610   F   F   F
  2.7860007178750168  2.7860007178750168  1.9700000000000610   F   F   F
  5.5720014357499741  2.7860007178750168  1.9700000000000610   F   F   F
  0.0000000000000000  5.5720014357499741  1.9700000000000610   F   F   F
  2.7860007178750168  5.5720014357499741  1.9700000000000610   F   F   F
  5.5720014357499741  5.5720014357499741  1.9700000000000610   F   F   F
  1.3910883345213580  1.3935623226920872  3.9658203056032728   T   T   T
  4.1636603059148962  1.4024676067172321  3.9627160607773906   T   T   T
  6.9608409694617395  1.3869205117964170  3.9686048155033866   T   T   T
  1.4526699190845811  4.1781668999733101  3.9464350459950954   T   T   T
  4.1942054070558408  4.2014312365735336  3.9878527807940980   T   T   T
  6.9979890491509051  4.1732642315182051  3.9545969624233379   T   T   T
  1.4354778928599541  6.9563920974440441  3.9668128971636447   T   T   T
  4.1827718349337664  6.9398452119206633  4.0139694718819401   T   T   T
  6.9798082985775043  6.9361441420612984  3.9796568385231952   T   T   T
  8.3314298731079468  8.3247001382066941  5.9229355153903915   T   T   T
  2.7716624439700319  8.3770568044858020  5.9454359730255124   T   T   T
  5.5619066493791056  8.3469315801602484  5.9343557428267575   T   T   T
  8.3975593887864530  2.7501521939630424  5.9791573137283347   T   T   T
  2.8367577247118292  2.7592835963446141  6.0579648174913263   T   T   T
  5.6064108552374563  2.7656752950292334  5.9458496881282095   T   T   T
  8.4687561909158244  5.5731010046106757  5.9738000000350970   T   T   T
  2.9200146441540129  5.6004354680263431  6.2200733238203361   T   T   T
  5.6455665488518818  5.5341652559447105  6.0114414304879578   T   T   T
  4.3331054444794210  2.1207144434633949  6.8064484542027319   T   T   T
  4.4097464370214956  5.1449286040410138  7.1123208773616060   T   T   T
  1.4228098236537228  4.1544467693786116  7.2226336836237852   T   T   T
